O  Si
 1.0000000000000000
    12.6613900000000008    0.0000000000000000    0.0000000000000000
     0.0000000000000000   12.6613900000000008    0.0000000000000000
     0.0000000000000000    0.0000000000000000   26.4061200000000014
 O   Si 
 128  64
Cartesian
  4.2571391597000003  8.4390696627999997  1.7203587180000002
  8.4042508402999996  4.2223203372000002 14.9234187180000024
  4.2223203372000002  4.2571391597000003  8.3218887180000003
  8.4390696627999997  8.4042508402999996 21.5249487180000010
  8.4042508402999996  8.4390696627999997 24.6857612820000014
  4.2571391597000003  4.2223203372000002 11.4827012820000007
  8.4390696627999997  4.2571391597000003 18.0842312820000011
  4.2223203372000002  8.4042508402999996  4.8811712820000004
  4.2357414106000002 10.3484072748000031 26.3044564380000025
  8.4256485893999997  2.3129827251999981 13.1013964380000001
  2.3129827251999981  4.2357414106000002  6.4998664380000006
 10.3484072748000031  8.4256485893999997 19.7029264380000022
  8.4256485893999997 10.3484072748000031  0.1016635620000000
  4.2357414106000002  2.3129827251999981 13.3047235620000013
 10.3484072748000031  4.2357414106000002 19.9062535619999998
  2.3129827251999981  8.4256485893999997  6.7031935620000009
  2.9669435187000008 10.6934301523000030  2.1861626748000003
  9.6944464813000000  1.9679598476999982 15.3892226748000009
  1.9679598476999982  2.9669435187000008  8.7876926748000006
 10.6934301523000030  9.6944464813000000 21.9907526748000031
  9.6944464813000000 10.6934301523000030 24.2199573251999993
  2.9669435187000008  1.9679598476999982 11.0168973252000004
 10.6934301523000030  2.9669435187000008 17.6184273251999990
  1.9679598476999982  9.6944464813000000  4.4153673252000001
  5.6049441252000003 10.6705130364000009  2.1307098228000001
  7.0564458748000005  1.9908769635999992 15.3337698228000026
  1.9908769635999992  5.6049441252000003  8.7322398228000004
 10.6705130364000009  7.0564458748000005 21.9352998228000011
  7.0564458748000005 10.6705130364000009 24.2754101772000013
  5.6049441252000003  1.9908769635999992 11.0723501772000006
 10.6705130364000009  5.6049441252000003 17.6738801772000009
  1.9908769635999992  7.0564458748000005  4.4708201772000002
  4.2359946384000002  6.5347966068000005 26.2999673975999997
  8.4253953616000015  6.1265933932000003 13.0969073976000008
  6.1265933932000003  4.2359946384000002  6.4953773976000004
  6.5347966068000005  8.4253953616000015 19.6984373975999993
  8.4253953616000015  6.5347966068000005  0.1061526024000000
  4.2359946384000002  6.1265933932000003 13.3092126024000006
  6.5347966068000005  4.2359946384000002 19.9107426024000027
  6.1265933932000003  8.4253953616000015  6.7076826024000011
  2.9708685496000005  6.1815438258000013  2.1822017568000001
  9.6905214504000003  6.4798461741999995 15.3852617568000021
  6.4798461741999995  2.9708685496000005  8.7837317568000000
  6.1815438258000013  9.6905214504000003 21.9867917568000024
  9.6905214504000003  6.1815438258000013 24.2239182432000000
  2.9708685496000005  6.4798461741999995 11.0208582432000011
  6.1815438258000013  2.9708685496000005 17.6223882431999996
  6.4798461741999995  9.6905214504000003  4.4193282432000007
  5.6091223839000008  6.2088924282000013  2.1238442316000001
  7.0522676160999991  6.4524975717999995 15.3269042316000004
  6.4524975717999995  5.6091223839000008  8.7253742316000000
  6.2088924282000013  7.0522676160999991 21.9284342316000007
  7.0522676160999991  6.2088924282000013 24.2822757684000017
  5.6091223839000008  6.4524975717999995 11.0792157684000010
  6.2088924282000013  5.6091223839000008 17.6807457684000013
  6.4524975717999995  7.0522676160999991  4.4776857683999998
  9.1023998849000005  8.4438809910000003  1.7979927108000000
  3.5589901150999994  4.2175090089999996 15.0010527107999998
  4.2175090089999996  9.1023998849000005  8.3995227107999995
  8.4438809910000003  3.5589901150999994 21.6025827108000001
  3.5589901150999994  8.4438809910000003 24.6081272892000023
  9.1023998849000005  4.2175090089999996 11.4050672892000016
  8.4438809910000003  9.1023998849000005 18.0065972892000019
  4.2175090089999996  3.5589901150999994  4.8035372892000003
 10.5778316615999994 10.6231594378000000  1.6039077287999999
  2.0835583384000005  2.0382305622000003 14.8069677288000019
  2.0382305622000003 10.5778316615999994  8.2054377288000016
 10.6231594378000000  2.0835583384000005 21.4084977288000005
  2.0835583384000005 10.6231594378000000 24.8022122712000019
 10.5778316615999994  2.0382305622000003 11.5991522711999995
 10.6231594378000000 10.5778316615999994 18.2006822712000016
  2.0382305622000003  2.0835583384000005  4.9976222712000009
  8.1803974651000004 10.7462281486000020  2.6992335864000001
  4.4809925348999995  1.9151618513999982 15.9022935864000008
  1.9151618513999982  8.1803974651000004  9.3007635864000004
 10.7462281486000020  4.4809925348999995 22.5038235863999994
  4.4809925348999995 10.7462281486000020 23.7068864136000030
  8.1803974651000004  1.9151618513999982 10.5038264136000006
 10.7462281486000020  8.1803974651000004 17.1053564136000027
  1.9151618513999982  4.4809925348999995  3.9022964136000007
 10.5797308701000006  6.2661219110000008  1.6065483408000001
  2.0816591298999993  6.3952680889999991 14.8096083408000005
  6.3952680889999991 10.5797308701000006  8.2080783408000002
  6.2661219110000008  2.0816591298999993 21.4111383408000009
  2.0816591298999993  6.2661219110000008 24.7995716592000015
 10.5797308701000006  6.3952680889999991 11.5965116592000008
  6.2661219110000008 10.5797308701000006 18.1980416592000012
  6.3952680889999991  2.0816591298999993  4.9949816592000005
  8.1826765153000025  6.1430532002000007  2.7045148104000001
  4.4787134846999983  6.5183367998000001 15.9075748103999999
  6.5183367998000001  8.1826765153000025  9.3060448104000013
  6.1430532002000007  4.4787134846999983 22.5091048104000002
  4.4787134846999983  6.1430532002000007 23.7016051896000022
  8.1826765153000025  6.5183367998000001 10.4985451895999997
  6.1430532002000007  8.1826765153000025 17.1000751896000018
  6.5183367998000001  4.4787134846999983  3.8970151895999998
  0.0000000000000000 10.4012052711000020  0.0000000000000000
  0.0000000000000000  2.2601847288999979 13.2030600000000007
  2.2601847288999979  0.0000000000000000  6.6015300000000003
 10.4012052711000020  0.0000000000000000 19.8045900000000010
 12.0668111256000028  8.4454003578000005  1.6691308452000002
  0.5945788743999987  4.2159896421999994 14.8721908452000005
  4.2159896421999994 12.0668111256000028  8.2706608452000001
  8.4454003578000005  0.5945788743999987 21.4737208452000026
  0.5945788743999987  8.4454003578000005 24.7369891547999998
 12.0668111256000028  4.2159896421999994 11.5339291548000009
  8.4454003578000005 12.0668111256000028 18.1354591547999995
  4.2159896421999994  0.5945788743999987  4.9323991548000006
  0.3600899316000031 10.7252102412000010  2.5941372288000002
 12.3013000683999980  1.9361797587999994 15.7971972288000000
  1.9361797587999994  0.3600899316000031  9.1956672287999996
 10.7252102412000010 12.3013000683999980 22.3987272288000021
 12.3013000683999980 10.7252102412000010 23.8119827712000003
  0.3600899316000031  1.9361797587999994 10.6089227712000014
 10.7252102412000010  0.3600899316000031 17.2104527711999999
  1.9361797587999994 12.3013000683999980  4.0073927712000001
  0.0000000000000000  6.4897220584000017  0.0000000000000000
  0.0000000000000000  6.1716679415999991 13.2030600000000007
  6.1716679415999991  0.0000000000000000  6.6015300000000003
  6.4897220584000017  0.0000000000000000 19.8045900000000010
  0.3638883485999999  6.1671098412000003  2.5933450452000004
 12.2975016514000011  6.4942801588000005 15.7964050452000020
  6.4942801588000005  0.3638883485999999  9.1948750452000017
  6.1671098412000003 12.2975016514000011 22.3979350452000006
 12.2975016514000011  6.1671098412000003 23.8127749548000018
  0.3638883485999999  6.4942801588000005 10.6097149547999994
  6.1671098412000003  0.3638883485999999 17.2112449548000015
  6.4942801588000005 12.2975016514000011  4.0081849547999999
  4.2661287466000015 10.0375701503000023  1.4837598828000000
  8.3952612534000011  2.6238198496999989 14.6868198828000001
  2.6238198496999989  4.2661287466000015  8.0852898828000015
 10.0375701503000023  8.3952612534000011 21.2883498827999986
  8.3952612534000011 10.0375701503000023 24.9223601172000038
  4.2661287466000015  2.6238198496999989 11.7193001171999995
 10.0375701503000023  4.2661287466000015 18.3208301172000034
  2.6238198496999989  8.3952612534000011  5.1177701172000010
  4.2682811829000009  6.8410756308999998  1.4803270872000001
  8.3931088170999999  5.8203143691000010 14.6833870871999999
  5.8203143691000010  4.2682811829000009  8.0818570871999995
  6.8410756308999998  8.3931088170999999 21.2849170872000002
  8.3931088170999999  6.8410756308999998 24.9257929128000022
  4.2682811829000009  5.8203143691000010 11.7227329128000015
  6.8410756308999998  4.2682811829000009 18.3242629128000019
  5.8203143691000010  8.3931088170999999  5.1212029128000003
  9.0715060933000018 10.0404822700000018  1.5505673664000001
  3.5898839066999981  2.6209077299999981 14.7536273663999999
  2.6209077299999981  9.0715060933000018  8.1520973663999996
 10.0404822700000018  3.5898839066999981 21.3551573664000003
  3.5898839066999981 10.0404822700000018 24.8555526336000021
  9.0715060933000018  2.6209077299999981 11.6524926336000014
 10.0404822700000018  9.0715060933000018 18.2540226336000018
  2.6209077299999981  3.5898839066999981  5.0509626336000002
  9.0726456184000011  6.8467732564000006  1.5537361007999999
  3.5887443815999993  5.8146167436000002 14.7567961008000008
  5.8146167436000002  9.0726456184000011  8.1552661008000005
  6.8467732564000006  3.5887443815999993 21.3583261008000029
  3.5887443815999993  6.8467732564000006 24.8523838991999995
  9.0726456184000011  5.8146167436000002 11.6493238992000006
  6.8467732564000006  9.0726456184000011 18.2508538991999991
  5.8146167436000002  3.5887443815999993  5.0477938992000002
 12.0821314075000021 10.0485855596000029  1.4668599659999999
  0.5792585924999981  2.6128044403999988 14.6699199660000001
  2.6128044403999988 12.0821314075000021  8.0683899659999998
 10.0485855596000029  0.5792585924999981 21.2714499660000023
  0.5792585924999981 10.0485855596000029 24.9392600340000001
 12.0821314075000021  2.6128044403999988 11.7362000340000012
 10.0485855596000029 12.0821314075000021 18.3377300339999998
  2.6128044403999988  0.5792585924999981  5.1346700340000009
 12.0832709325999996  6.8422151560000000  1.4671240272000001
  0.5781190674000005  5.8191748440000008 14.6701840272000030
  5.8191748440000008 12.0832709325999996  8.0686540272000009
  6.8422151560000000  0.5781190674000005 21.2717140272000016
  0.5781190674000005  6.8422151560000000 24.9389959728000008
 12.0832709325999996  5.8191748440000008 11.7359359728000001
  6.8422151560000000 12.0832709325999996 18.3374659728000005
  5.8191748440000008  0.5781190674000005  5.1344059728000007
  1.8077932642000003 10.8535967358000001  3.3007649999999997
 10.8535967358000001  1.8077932642000003 16.5038249999999991
  1.8077932642000003  1.8077932642000003  9.9022950000000005
 10.8535967358000001 10.8535967358000001 23.1053550000000030
  6.6897720204000022 10.8510644578000015  3.3144961824000001
  5.9716179795999986  1.8103255421999986 16.5175561823999999
  1.8103255421999986  6.6897720204000022  9.9160261823999996
 10.8510644578000015  5.9716179795999986 23.1190861824000002
  5.9716179795999986 10.8510644578000015 23.0916238176000022
  6.6897720204000022  1.8103255421999986  9.8885638176000015
 10.8510644578000015  6.6897720204000022 16.4900938176000018
  1.8103255421999986  5.9716179795999986  3.2870338176000002
  6.6905317038000005  5.9708582962000012  3.3007649999999997
  5.9708582962000003  6.6905317037999987 16.5038249999999991
  6.6905317037999987  6.6905317038000005  9.9022950000000005
  5.9708582962000012  5.9708582962000003 23.1053550000000030
