C 
 1.0000000000000000
    16.7800005757147410    0.0000000000000000    0.0000000000000000
     0.0000000000000000   16.7428590231578092    0.0000000000000000
     0.0000000000000000    0.0000000000000000   12.2975607337390276
 C  
 100
Cartesian
 11.7800005757147410  8.3714295115789046  0.0000000000000000
 11.4869196522365815  9.7502668486880069  0.0000000000000000
 11.1325681316699470 10.3640216860487051  1.2297560733739026
 10.0850004317860567 11.3072558796999481  1.2297560733739026
  9.4375679877412626 11.5955113755881030 -0.0000000000000004
  8.0356487672907377 11.7428590231578092  2.4595121467478052
  7.3424325879734793 11.5955113755881030  1.2297560733739024
  6.1216473396866640 10.8906906838669872  1.2297560733739024
  5.6474324440447941 10.3640216860487069 -0.0000000000000009
  5.0740796398027719  9.0762502033000221  2.4595121467478047
  5.0000000000000000  8.3714295115789046  1.2297560733739015
  5.2930809234781595  6.9925921744698014  1.2297560733739015
  5.6474324440447932  6.3788373371091041 -0.0000000000000009
  6.6950001439286835  5.4356031434578629  2.4595121467478047
  7.3424325879734784  5.1473476475697062  1.2297560733739015
  8.7443518084240033  5.0000000000000000  1.2297560733739015
  9.4375679877412608  5.1473476475697053 -0.0000000000000018
 10.6583532360280753  5.8521683392908219  2.4595121467478038
 11.1325681316699470  6.3788373371091023  1.2297560733739006
 11.7059209359119691  7.6666088198577862  1.2297560733739006
 11.7800005757147410  8.3714295115789046  2.4595121467478056
 11.4869196522365815  9.7502668486880069  2.4595121467478056
 11.1325681316699470 10.3640216860487051  3.6892682201217082
 10.0850004317860567 11.3072558796999481  3.6892682201217082
  9.4375679877412626 11.5955113755881030  2.4595121467478052
  8.0356487672907377 11.7428590231578092  4.9190242934956103
  7.3424325879734793 11.5955113755881030  3.6892682201217077
  6.1216473396866640 10.8906906838669872  3.6892682201217077
  5.6474324440447941 10.3640216860487069  2.4595121467478047
  5.0740796398027719  9.0762502033000221  4.9190242934956103
  5.0000000000000000  8.3714295115789046  3.6892682201217069
  5.2930809234781595  6.9925921744698014  3.6892682201217069
  5.6474324440447932  6.3788373371091041  2.4595121467478047
  6.6950001439286835  5.4356031434578629  4.9190242934956103
  7.3424325879734784  5.1473476475697062  3.6892682201217069
  8.7443518084240033  5.0000000000000000  3.6892682201217069
  9.4375679877412608  5.1473476475697053  2.4595121467478038
 10.6583532360280753  5.8521683392908219  4.9190242934956094
 11.1325681316699470  6.3788373371091023  3.6892682201217060
 11.7059209359119691  7.6666088198577862  3.6892682201217060
 11.7800005757147410  8.3714295115789046  4.9190242934956112
 11.4869196522365815  9.7502668486880069  4.9190242934956112
 11.1325681316699470 10.3640216860487051  6.1487803668695138
 10.0850004317860567 11.3072558796999481  6.1487803668695138
  9.4375679877412626 11.5955113755881030  4.9190242934956103
  8.0356487672907377 11.7428590231578092  7.3785364402434164
  7.3424325879734793 11.5955113755881030  6.1487803668695138
  6.1216473396866640 10.8906906838669872  6.1487803668695138
  5.6474324440447941 10.3640216860487069  4.9190242934956103
  5.0740796398027719  9.0762502033000221  7.3785364402434155
  5.0000000000000000  8.3714295115789046  6.1487803668695129
  5.2930809234781595  6.9925921744698014  6.1487803668695129
  5.6474324440447932  6.3788373371091041  4.9190242934956103
  6.6950001439286835  5.4356031434578629  7.3785364402434155
  7.3424325879734784  5.1473476475697062  6.1487803668695129
  8.7443518084240033  5.0000000000000000  6.1487803668695129
  9.4375679877412608  5.1473476475697053  4.9190242934956094
 10.6583532360280753  5.8521683392908219  7.3785364402434155
 11.1325681316699470  6.3788373371091023  6.1487803668695120
 11.7059209359119691  7.6666088198577862  6.1487803668695120
 11.7800005757147410  8.3714295115789046  7.3785364402434173
 11.4869196522365815  9.7502668486880069  7.3785364402434173
 11.1325681316699470 10.3640216860487051  8.6082925136173198
 10.0850004317860567 11.3072558796999481  8.6082925136173198
  9.4375679877412626 11.5955113755881030  7.3785364402434173
  8.0356487672907377 11.7428590231578092  9.8380485869912224
  7.3424325879734793 11.5955113755881030  8.6082925136173198
  6.1216473396866640 10.8906906838669872  8.6082925136173198
  5.6474324440447941 10.3640216860487069  7.3785364402434164
  5.0740796398027719  9.0762502033000221  9.8380485869912224
  5.0000000000000000  8.3714295115789046  8.6082925136173181
  5.2930809234781595  6.9925921744698014  8.6082925136173181
  5.6474324440447932  6.3788373371091041  7.3785364402434164
  6.6950001439286835  5.4356031434578629  9.8380485869912224
  7.3424325879734784  5.1473476475697062  8.6082925136173181
  8.7443518084240033  5.0000000000000000  8.6082925136173181
  9.4375679877412608  5.1473476475697053  7.3785364402434155
 10.6583532360280753  5.8521683392908219  9.8380485869912206
 11.1325681316699470  6.3788373371091023  8.6082925136173181
 11.7059209359119691  7.6666088198577862  8.6082925136173181
 11.7800005757147410  8.3714295115789046  9.8380485869912224
 11.4869196522365815  9.7502668486880069  9.8380485869912224
 11.1325681316699470 10.3640216860487051 11.0678046603651250
 10.0850004317860567 11.3072558796999481 11.0678046603651250
  9.4375679877412626 11.5955113755881030  9.8380485869912224
  8.0356487672907377 11.7428590231578092 12.2975607337390276
  7.3424325879734793 11.5955113755881030 11.0678046603651250
  6.1216473396866640 10.8906906838669872 11.0678046603651250
  5.6474324440447941 10.3640216860487069  9.8380485869912206
  5.0740796398027719  9.0762502033000221 12.2975607337390276
  5.0000000000000000  8.3714295115789046 11.0678046603651232
  5.2930809234781595  6.9925921744698014 11.0678046603651232
  5.6474324440447932  6.3788373371091041  9.8380485869912206
  6.6950001439286835  5.4356031434578629 12.2975607337390276
  7.3424325879734784  5.1473476475697062 11.0678046603651232
  8.7443518084240033  5.0000000000000000 11.0678046603651232
  9.4375679877412608  5.1473476475697053  9.8380485869912206
 10.6583532360280753  5.8521683392908219 12.2975607337390258
 11.1325681316699470  6.3788373371091023 11.0678046603651232
 11.7059209359119691  7.6666088198577862 11.0678046603651232
