Pd
 1.0000000000000000
    41.3400000000000034    0.0000000000000000    0.0000000000000000
     0.0000000000000000   41.3400000000000034    0.0000000000000000
     0.0000000000000000    0.0000000000000000   35.5049999999999955
 Pd 
 577
Cartesian
  9.0000000000000000 14.8350000000000009 12.8899999999999970
 10.9450000000000003 12.8900000000000006 12.8899999999999970
 10.9450000000000003 14.8350000000000009 10.9449999999999985
  9.0000000000000000 14.8350000000000009 16.7799999999999976
 10.9450000000000003 12.8900000000000006 16.7799999999999976
 10.9450000000000003 14.8350000000000009 14.8349999999999973
 10.9450000000000003 14.8350000000000009 18.7249999999999979
  9.0000000000000000 18.7250000000000014  8.9999999999999982
 10.9450000000000003 16.7800000000000011  8.9999999999999982
  9.0000000000000000 16.7800000000000011 10.9449999999999985
  9.0000000000000000 18.7250000000000014 12.8899999999999970
 10.9450000000000003 16.7800000000000011 12.8899999999999970
 10.9450000000000003 18.7250000000000014 10.9449999999999985
  9.0000000000000000 16.7800000000000011 14.8349999999999973
  9.0000000000000000 18.7250000000000014 16.7799999999999976
 10.9450000000000003 16.7800000000000011 16.7799999999999976
 10.9450000000000003 18.7250000000000014 14.8349999999999973
  9.0000000000000000 16.7800000000000011 18.7249999999999979
  9.0000000000000000 18.7250000000000014 20.6699999999999982
 10.9450000000000003 16.7800000000000011 20.6699999999999982
 10.9450000000000003 18.7250000000000014 18.7249999999999979
 10.9450000000000003 18.7250000000000014 22.6149999999999984
  9.0000000000000000 22.6150000000000020  8.9999999999999982
 10.9450000000000003 20.6700000000000017  8.9999999999999982
  9.0000000000000000 20.6700000000000017 10.9449999999999985
  9.0000000000000000 22.6150000000000020 12.8899999999999970
 10.9450000000000003 20.6700000000000017 12.8899999999999970
 10.9450000000000003 22.6150000000000020 10.9449999999999985
  9.0000000000000000 20.6700000000000017 14.8349999999999973
  9.0000000000000000 22.6150000000000020 16.7799999999999976
 10.9450000000000003 20.6700000000000017 16.7799999999999976
 10.9450000000000003 22.6150000000000020 14.8349999999999973
  9.0000000000000000 20.6700000000000017 18.7249999999999979
  9.0000000000000000 22.6150000000000020 20.6699999999999982
 10.9450000000000003 20.6700000000000017 20.6699999999999982
 10.9450000000000003 22.6150000000000020 18.7249999999999979
 10.9450000000000003 22.6150000000000020 22.6149999999999984
 10.9450000000000003 24.5600000000000023  8.9999999999999982
  9.0000000000000000 24.5600000000000023 10.9449999999999985
  9.0000000000000000 26.5050000000000026 12.8899999999999970
 10.9450000000000003 24.5600000000000023 12.8899999999999970
 10.9450000000000003 26.5050000000000026 10.9449999999999985
  9.0000000000000000 24.5600000000000023 14.8349999999999973
  9.0000000000000000 26.5050000000000026 16.7799999999999976
 10.9450000000000003 24.5600000000000023 16.7799999999999976
 10.9450000000000003 26.5050000000000026 14.8349999999999973
  9.0000000000000000 24.5600000000000023 18.7249999999999979
 10.9450000000000003 24.5600000000000023 20.6699999999999982
 10.9450000000000003 26.5050000000000026 18.7249999999999979
 10.9450000000000003 28.4500000000000028 12.8899999999999970
 10.9450000000000003 28.4500000000000028 16.7799999999999976
 12.8900000000000006 10.9450000000000003 12.8899999999999970
 14.8350000000000009  9.0000000000000000 12.8899999999999970
 14.8350000000000009 10.9450000000000003 10.9449999999999985
 12.8900000000000006 10.9450000000000003 16.7799999999999976
 14.8350000000000009  9.0000000000000000 16.7799999999999976
 14.8350000000000009 10.9450000000000003 14.8349999999999973
 14.8350000000000009 10.9450000000000003 18.7249999999999979
 12.8900000000000006 14.8350000000000009  8.9999999999999982
 14.8350000000000009 12.8900000000000006  8.9999999999999982
 12.8900000000000006 12.8900000000000006 10.9449999999999985
 12.8900000000000006 14.8350000000000009 12.8899999999999970
 14.8350000000000009 12.8900000000000006 12.8899999999999970
 14.8350000000000009 14.8350000000000009 10.9449999999999985
 12.8900000000000006 12.8900000000000006 14.8349999999999973
 12.8900000000000006 14.8350000000000009 16.7799999999999976
 14.8350000000000009 12.8900000000000006 16.7799999999999976
 14.8350000000000009 14.8350000000000009 14.8349999999999973
 12.8900000000000006 12.8900000000000006 18.7249999999999979
 12.8900000000000006 14.8350000000000009 20.6699999999999982
 14.8350000000000009 12.8900000000000006 20.6699999999999982
 14.8350000000000009 14.8350000000000009 18.7249999999999979
 14.8350000000000009 14.8350000000000009 22.6149999999999984
 12.8900000000000006 18.7250000000000014  8.9999999999999982
 14.8350000000000009 16.7800000000000011  8.9999999999999982
 12.8900000000000006 16.7800000000000011 10.9449999999999985
 12.8900000000000006 18.7250000000000014 12.8899999999999970
 14.8350000000000009 16.7800000000000011 12.8899999999999970
 14.8350000000000009 18.7250000000000014 10.9449999999999985
 12.8900000000000006 16.7800000000000011 14.8349999999999973
 12.8900000000000006 18.7250000000000014 16.7799999999999976
 14.8350000000000009 16.7800000000000011 16.7799999999999976
 14.8350000000000009 18.7250000000000014 14.8349999999999973
 12.8900000000000006 16.7800000000000011 18.7249999999999979
 12.8900000000000006 18.7250000000000014 20.6699999999999982
 14.8350000000000009 16.7800000000000011 20.6699999999999982
 14.8350000000000009 18.7250000000000014 18.7249999999999979
 12.8900000000000006 16.7800000000000011 22.6149999999999984
 12.8900000000000006 18.7250000000000014 24.5599999999999987
 14.8350000000000009 16.7800000000000011 24.5599999999999987
 14.8350000000000009 18.7250000000000014 22.6149999999999984
 14.8350000000000009 18.7250000000000014 26.5049999999999990
 12.8900000000000006 22.6150000000000020  8.9999999999999982
 14.8350000000000009 20.6700000000000017  8.9999999999999982
 12.8900000000000006 20.6700000000000017 10.9449999999999985
 12.8900000000000006 22.6150000000000020 12.8899999999999970
 14.8350000000000009 20.6700000000000017 12.8899999999999970
 14.8350000000000009 22.6150000000000020 10.9449999999999985
 12.8900000000000006 20.6700000000000017 14.8349999999999973
 12.8900000000000006 22.6150000000000020 16.7799999999999976
 14.8350000000000009 20.6700000000000017 16.7799999999999976
 14.8350000000000009 22.6150000000000020 14.8349999999999973
 12.8900000000000006 20.6700000000000017 18.7249999999999979
 12.8900000000000006 22.6150000000000020 20.6699999999999982
 14.8350000000000009 20.6700000000000017 20.6699999999999982
 14.8350000000000009 22.6150000000000020 18.7249999999999979
 12.8900000000000006 20.6700000000000017 22.6149999999999984
 12.8900000000000006 22.6150000000000020 24.5599999999999987
 14.8350000000000009 20.6700000000000017 24.5599999999999987
 14.8350000000000009 22.6150000000000020 22.6149999999999984
 14.8350000000000009 22.6150000000000020 26.5049999999999990
 12.8900000000000006 26.5050000000000026  8.9999999999999982
 14.8350000000000009 24.5600000000000023  8.9999999999999982
 12.8900000000000006 24.5600000000000023 10.9449999999999985
 12.8900000000000006 26.5050000000000026 12.8899999999999970
 14.8350000000000009 24.5600000000000023 12.8899999999999970
 14.8350000000000009 26.5050000000000026 10.9449999999999985
 12.8900000000000006 24.5600000000000023 14.8349999999999973
 12.8900000000000006 26.5050000000000026 16.7799999999999976
 14.8350000000000009 24.5600000000000023 16.7799999999999976
 14.8350000000000009 26.5050000000000026 14.8349999999999973
 12.8900000000000006 24.5600000000000023 18.7249999999999979
 12.8900000000000006 26.5050000000000026 20.6699999999999982
 14.8350000000000009 24.5600000000000023 20.6699999999999982
 14.8350000000000009 26.5050000000000026 18.7249999999999979
 12.8900000000000006 24.5600000000000023 22.6149999999999984
 14.8350000000000009 24.5600000000000023 24.5599999999999987
 14.8350000000000009 26.5050000000000026 22.6149999999999984
 14.8350000000000009 28.4500000000000028  8.9999999999999982
 12.8900000000000006 28.4500000000000028 10.9449999999999985
 12.8900000000000006 30.3950000000000031 12.8899999999999970
 14.8350000000000009 28.4500000000000028 12.8899999999999970
 14.8350000000000009 30.3950000000000031 10.9449999999999985
 12.8900000000000006 28.4500000000000028 14.8349999999999973
 12.8900000000000006 30.3950000000000031 16.7799999999999976
 14.8350000000000009 28.4500000000000028 16.7799999999999976
 14.8350000000000009 30.3950000000000031 14.8349999999999973
 12.8900000000000006 28.4500000000000028 18.7249999999999979
 14.8350000000000009 28.4500000000000028 20.6699999999999982
 14.8350000000000009 30.3950000000000031 18.7249999999999979
 14.8350000000000009 32.3400000000000034 12.8899999999999970
 14.8350000000000009 32.3400000000000034 16.7799999999999976
 16.7800000000000011 10.9450000000000003  8.9999999999999982
 18.7250000000000014  9.0000000000000000  8.9999999999999982
 16.7800000000000011  9.0000000000000000 10.9449999999999985
 16.7800000000000011 10.9450000000000003 12.8899999999999970
 18.7250000000000014  9.0000000000000000 12.8899999999999970
 18.7250000000000014 10.9450000000000003 10.9449999999999985
 16.7800000000000011  9.0000000000000000 14.8349999999999973
 16.7800000000000011 10.9450000000000003 16.7799999999999976
 18.7250000000000014  9.0000000000000000 16.7799999999999976
 18.7250000000000014 10.9450000000000003 14.8349999999999973
 16.7800000000000011  9.0000000000000000 18.7249999999999979
 16.7800000000000011 10.9450000000000003 20.6699999999999982
 18.7250000000000014  9.0000000000000000 20.6699999999999982
 18.7250000000000014 10.9450000000000003 18.7249999999999979
 18.7250000000000014 10.9450000000000003 22.6149999999999984
 16.7800000000000011 14.8350000000000009  8.9999999999999982
 18.7250000000000014 12.8900000000000006  8.9999999999999982
 16.7800000000000011 12.8900000000000006 10.9449999999999985
 16.7800000000000011 14.8350000000000009 12.8899999999999970
 18.7250000000000014 12.8900000000000006 12.8899999999999970
 18.7250000000000014 14.8350000000000009 10.9449999999999985
 16.7800000000000011 12.8900000000000006 14.8349999999999973
 16.7800000000000011 14.8350000000000009 16.7799999999999976
 18.7250000000000014 12.8900000000000006 16.7799999999999976
 18.7250000000000014 14.8350000000000009 14.8349999999999973
 16.7800000000000011 12.8900000000000006 18.7249999999999979
 16.7800000000000011 14.8350000000000009 20.6699999999999982
 18.7250000000000014 12.8900000000000006 20.6699999999999982
 18.7250000000000014 14.8350000000000009 18.7249999999999979
 16.7800000000000011 12.8900000000000006 22.6149999999999984
 16.7800000000000011 14.8350000000000009 24.5599999999999987
 18.7250000000000014 12.8900000000000006 24.5599999999999987
 18.7250000000000014 14.8350000000000009 22.6149999999999984
 18.7250000000000014 14.8350000000000009 26.5049999999999990
 16.7800000000000011 18.7250000000000014  8.9999999999999982
 18.7250000000000014 16.7800000000000011  8.9999999999999982
 16.7800000000000011 16.7800000000000011 10.9449999999999985
 16.7800000000000011 18.7250000000000014 12.8899999999999970
 18.7250000000000014 16.7800000000000011 12.8899999999999970
 18.7250000000000014 18.7250000000000014 10.9449999999999985
 16.7800000000000011 16.7800000000000011 14.8349999999999973
 16.7800000000000011 18.7250000000000014 16.7799999999999976
 18.7250000000000014 16.7800000000000011 16.7799999999999976
 18.7250000000000014 18.7250000000000014 14.8349999999999973
 16.7800000000000011 16.7800000000000011 18.7249999999999979
 16.7800000000000011 18.7250000000000014 20.6699999999999982
 18.7250000000000014 16.7800000000000011 20.6699999999999982
 18.7250000000000014 18.7250000000000014 18.7249999999999979
 16.7800000000000011 16.7800000000000011 22.6149999999999984
 16.7800000000000011 18.7250000000000014 24.5599999999999987
 18.7250000000000014 16.7800000000000011 24.5599999999999987
 18.7250000000000014 18.7250000000000014 22.6149999999999984
 16.7800000000000011 16.7800000000000011 26.5049999999999990
 18.7250000000000014 18.7250000000000014 26.5049999999999990
 16.7800000000000011 22.6150000000000020  8.9999999999999982
 18.7250000000000014 20.6700000000000017  8.9999999999999982
 16.7800000000000011 20.6700000000000017 10.9449999999999985
 16.7800000000000011 22.6150000000000020 12.8899999999999970
 18.7250000000000014 20.6700000000000017 12.8899999999999970
 18.7250000000000014 22.6150000000000020 10.9449999999999985
 16.7800000000000011 20.6700000000000017 14.8349999999999973
 16.7800000000000011 22.6150000000000020 16.7799999999999976
 18.7250000000000014 20.6700000000000017 16.7799999999999976
 18.7250000000000014 22.6150000000000020 14.8349999999999973
 16.7800000000000011 20.6700000000000017 18.7249999999999979
 16.7800000000000011 22.6150000000000020 20.6699999999999982
 18.7250000000000014 20.6700000000000017 20.6699999999999982
 18.7250000000000014 22.6150000000000020 18.7249999999999979
 16.7800000000000011 20.6700000000000017 22.6149999999999984
 16.7800000000000011 22.6150000000000020 24.5599999999999987
 18.7250000000000014 20.6700000000000017 24.5599999999999987
 18.7250000000000014 22.6150000000000020 22.6149999999999984
 16.7800000000000011 20.6700000000000017 26.5049999999999990
 18.7250000000000014 22.6150000000000020 26.5049999999999990
 16.7800000000000011 26.5050000000000026  8.9999999999999982
 18.7250000000000014 24.5600000000000023  8.9999999999999982
 16.7800000000000011 24.5600000000000023 10.9449999999999985
 16.7800000000000011 26.5050000000000026 12.8899999999999970
 18.7250000000000014 24.5600000000000023 12.8899999999999970
 18.7250000000000014 26.5050000000000026 10.9449999999999985
 16.7800000000000011 24.5600000000000023 14.8349999999999973
 16.7800000000000011 26.5050000000000026 16.7799999999999976
 18.7250000000000014 24.5600000000000023 16.7799999999999976
 18.7250000000000014 26.5050000000000026 14.8349999999999973
 16.7800000000000011 24.5600000000000023 18.7249999999999979
 16.7800000000000011 26.5050000000000026 20.6699999999999982
 18.7250000000000014 24.5600000000000023 20.6699999999999982
 18.7250000000000014 26.5050000000000026 18.7249999999999979
 16.7800000000000011 24.5600000000000023 22.6149999999999984
 16.7800000000000011 26.5050000000000026 24.5599999999999987
 18.7250000000000014 24.5600000000000023 24.5599999999999987
 18.7250000000000014 26.5050000000000026 22.6149999999999984
 16.7800000000000011 24.5600000000000023 26.5049999999999990
 18.7250000000000014 26.5050000000000026 26.5049999999999990
 16.7800000000000011 30.3950000000000031  8.9999999999999982
 18.7250000000000014 28.4500000000000028  8.9999999999999982
 16.7800000000000011 28.4500000000000028 10.9449999999999985
 16.7800000000000011 30.3950000000000031 12.8899999999999970
 18.7250000000000014 28.4500000000000028 12.8899999999999970
 18.7250000000000014 30.3950000000000031 10.9449999999999985
 16.7800000000000011 28.4500000000000028 14.8349999999999973
 16.7800000000000011 30.3950000000000031 16.7799999999999976
 18.7250000000000014 28.4500000000000028 16.7799999999999976
 18.7250000000000014 30.3950000000000031 14.8349999999999973
 16.7800000000000011 28.4500000000000028 18.7249999999999979
 16.7800000000000011 30.3950000000000031 20.6699999999999982
 18.7250000000000014 28.4500000000000028 20.6699999999999982
 18.7250000000000014 30.3950000000000031 18.7249999999999979
 16.7800000000000011 28.4500000000000028 22.6149999999999984
 18.7250000000000014 28.4500000000000028 24.5599999999999987
 18.7250000000000014 30.3950000000000031 22.6149999999999984
 18.7250000000000014 32.3400000000000034  8.9999999999999982
 16.7800000000000011 32.3400000000000034 10.9449999999999985
 18.7250000000000014 32.3400000000000034 12.8899999999999970
 16.7800000000000011 32.3400000000000034 14.8349999999999973
 18.7250000000000014 32.3400000000000034 16.7799999999999976
 16.7800000000000011 32.3400000000000034 18.7249999999999979
 18.7250000000000014 32.3400000000000034 20.6699999999999982
 20.6700000000000017 10.9450000000000003  8.9999999999999982
 22.6150000000000020  9.0000000000000000  8.9999999999999982
 20.6700000000000017  9.0000000000000000 10.9449999999999985
 20.6700000000000017 10.9450000000000003 12.8899999999999970
 22.6150000000000020  9.0000000000000000 12.8899999999999970
 22.6150000000000020 10.9450000000000003 10.9449999999999985
 20.6700000000000017  9.0000000000000000 14.8349999999999973
 20.6700000000000017 10.9450000000000003 16.7799999999999976
 22.6150000000000020  9.0000000000000000 16.7799999999999976
 22.6150000000000020 10.9450000000000003 14.8349999999999973
 20.6700000000000017  9.0000000000000000 18.7249999999999979
 20.6700000000000017 10.9450000000000003 20.6699999999999982
 22.6150000000000020  9.0000000000000000 20.6699999999999982
 22.6150000000000020 10.9450000000000003 18.7249999999999979
 22.6150000000000020 10.9450000000000003 22.6149999999999984
 20.6700000000000017 14.8350000000000009  8.9999999999999982
 22.6150000000000020 12.8900000000000006  8.9999999999999982
 20.6700000000000017 12.8900000000000006 10.9449999999999985
 20.6700000000000017 14.8350000000000009 12.8899999999999970
 22.6150000000000020 12.8900000000000006 12.8899999999999970
 22.6150000000000020 14.8350000000000009 10.9449999999999985
 20.6700000000000017 12.8900000000000006 14.8349999999999973
 20.6700000000000017 14.8350000000000009 16.7799999999999976
 22.6150000000000020 12.8900000000000006 16.7799999999999976
 22.6150000000000020 14.8350000000000009 14.8349999999999973
 20.6700000000000017 12.8900000000000006 18.7249999999999979
 20.6700000000000017 14.8350000000000009 20.6699999999999982
 22.6150000000000020 12.8900000000000006 20.6699999999999982
 22.6150000000000020 14.8350000000000009 18.7249999999999979
 20.6700000000000017 12.8900000000000006 22.6149999999999984
 20.6700000000000017 14.8350000000000009 24.5599999999999987
 22.6150000000000020 12.8900000000000006 24.5599999999999987
 22.6150000000000020 14.8350000000000009 22.6149999999999984
 22.6150000000000020 14.8350000000000009 26.5049999999999990
 20.6700000000000017 18.7250000000000014  8.9999999999999982
 22.6150000000000020 16.7800000000000011  8.9999999999999982
 20.6700000000000017 16.7800000000000011 10.9449999999999985
 20.6700000000000017 18.7250000000000014 12.8899999999999970
 22.6150000000000020 16.7800000000000011 12.8899999999999970
 22.6150000000000020 18.7250000000000014 10.9449999999999985
 20.6700000000000017 16.7800000000000011 14.8349999999999973
 20.6700000000000017 18.7250000000000014 16.7799999999999976
 22.6150000000000020 16.7800000000000011 16.7799999999999976
 22.6150000000000020 18.7250000000000014 14.8349999999999973
 20.6700000000000017 16.7800000000000011 18.7249999999999979
 20.6700000000000017 18.7250000000000014 20.6699999999999982
 22.6150000000000020 16.7800000000000011 20.6699999999999982
 22.6150000000000020 18.7250000000000014 18.7249999999999979
 20.6700000000000017 16.7800000000000011 22.6149999999999984
 20.6700000000000017 18.7250000000000014 24.5599999999999987
 22.6150000000000020 16.7800000000000011 24.5599999999999987
 22.6150000000000020 18.7250000000000014 22.6149999999999984
 20.6700000000000017 16.7800000000000011 26.5049999999999990
 22.6150000000000020 18.7250000000000014 26.5049999999999990
 20.6700000000000017 22.6150000000000020  8.9999999999999982
 22.6150000000000020 20.6700000000000017  8.9999999999999982
 20.6700000000000017 20.6700000000000017 10.9449999999999985
 20.6700000000000017 22.6150000000000020 12.8899999999999970
 22.6150000000000020 20.6700000000000017 12.8899999999999970
 22.6150000000000020 22.6150000000000020 10.9449999999999985
 20.6700000000000017 20.6700000000000017 14.8349999999999973
 20.6700000000000017 22.6150000000000020 16.7799999999999976
 22.6150000000000020 20.6700000000000017 16.7799999999999976
 22.6150000000000020 22.6150000000000020 14.8349999999999973
 20.6700000000000017 20.6700000000000017 18.7249999999999979
 20.6700000000000017 22.6150000000000020 20.6699999999999982
 22.6150000000000020 20.6700000000000017 20.6699999999999982
 22.6150000000000020 22.6150000000000020 18.7249999999999979
 20.6700000000000017 20.6700000000000017 22.6149999999999984
 20.6700000000000017 22.6150000000000020 24.5599999999999987
 22.6150000000000020 20.6700000000000017 24.5599999999999987
 22.6150000000000020 22.6150000000000020 22.6149999999999984
 20.6700000000000017 20.6700000000000017 26.5049999999999990
 22.6150000000000020 22.6150000000000020 26.5049999999999990
 20.6700000000000017 26.5050000000000026  8.9999999999999982
 22.6150000000000020 24.5600000000000023  8.9999999999999982
 20.6700000000000017 24.5600000000000023 10.9449999999999985
 20.6700000000000017 26.5050000000000026 12.8899999999999970
 22.6150000000000020 24.5600000000000023 12.8899999999999970
 22.6150000000000020 26.5050000000000026 10.9449999999999985
 20.6700000000000017 24.5600000000000023 14.8349999999999973
 20.6700000000000017 26.5050000000000026 16.7799999999999976
 22.6150000000000020 24.5600000000000023 16.7799999999999976
 22.6150000000000020 26.5050000000000026 14.8349999999999973
 20.6700000000000017 24.5600000000000023 18.7249999999999979
 20.6700000000000017 26.5050000000000026 20.6699999999999982
 22.6150000000000020 24.5600000000000023 20.6699999999999982
 22.6150000000000020 26.5050000000000026 18.7249999999999979
 20.6700000000000017 24.5600000000000023 22.6149999999999984
 20.6700000000000017 26.5050000000000026 24.5599999999999987
 22.6150000000000020 24.5600000000000023 24.5599999999999987
 22.6150000000000020 26.5050000000000026 22.6149999999999984
 20.6700000000000017 24.5600000000000023 26.5049999999999990
 22.6150000000000020 26.5050000000000026 26.5049999999999990
 20.6700000000000017 30.3950000000000031  8.9999999999999982
 22.6150000000000020 28.4500000000000028  8.9999999999999982
 20.6700000000000017 28.4500000000000028 10.9449999999999985
 20.6700000000000017 30.3950000000000031 12.8899999999999970
 22.6150000000000020 28.4500000000000028 12.8899999999999970
 22.6150000000000020 30.3950000000000031 10.9449999999999985
 20.6700000000000017 28.4500000000000028 14.8349999999999973
 20.6700000000000017 30.3950000000000031 16.7799999999999976
 22.6150000000000020 28.4500000000000028 16.7799999999999976
 22.6150000000000020 30.3950000000000031 14.8349999999999973
 20.6700000000000017 28.4500000000000028 18.7249999999999979
 20.6700000000000017 30.3950000000000031 20.6699999999999982
 22.6150000000000020 28.4500000000000028 20.6699999999999982
 22.6150000000000020 30.3950000000000031 18.7249999999999979
 20.6700000000000017 28.4500000000000028 22.6149999999999984
 22.6150000000000020 28.4500000000000028 24.5599999999999987
 22.6150000000000020 30.3950000000000031 22.6149999999999984
 22.6150000000000020 32.3400000000000034  8.9999999999999982
 20.6700000000000017 32.3400000000000034 10.9449999999999985
 22.6150000000000020 32.3400000000000034 12.8899999999999970
 20.6700000000000017 32.3400000000000034 14.8349999999999973
 22.6150000000000020 32.3400000000000034 16.7799999999999976
 20.6700000000000017 32.3400000000000034 18.7249999999999979
 22.6150000000000020 32.3400000000000034 20.6699999999999982
 24.5600000000000023 10.9450000000000003  8.9999999999999982
 24.5600000000000023  9.0000000000000000 10.9449999999999985
 24.5600000000000023 10.9450000000000003 12.8899999999999970
 26.5050000000000026  9.0000000000000000 12.8899999999999970
 26.5050000000000026 10.9450000000000003 10.9449999999999985
 24.5600000000000023  9.0000000000000000 14.8349999999999973
 24.5600000000000023 10.9450000000000003 16.7799999999999976
 26.5050000000000026  9.0000000000000000 16.7799999999999976
 26.5050000000000026 10.9450000000000003 14.8349999999999973
 24.5600000000000023  9.0000000000000000 18.7249999999999979
 24.5600000000000023 10.9450000000000003 20.6699999999999982
 26.5050000000000026 10.9450000000000003 18.7249999999999979
 24.5600000000000023 14.8350000000000009  8.9999999999999982
 26.5050000000000026 12.8900000000000006  8.9999999999999982
 24.5600000000000023 12.8900000000000006 10.9449999999999985
 24.5600000000000023 14.8350000000000009 12.8899999999999970
 26.5050000000000026 12.8900000000000006 12.8899999999999970
 26.5050000000000026 14.8350000000000009 10.9449999999999985
 24.5600000000000023 12.8900000000000006 14.8349999999999973
 24.5600000000000023 14.8350000000000009 16.7799999999999976
 26.5050000000000026 12.8900000000000006 16.7799999999999976
 26.5050000000000026 14.8350000000000009 14.8349999999999973
 24.5600000000000023 12.8900000000000006 18.7249999999999979
 24.5600000000000023 14.8350000000000009 20.6699999999999982
 26.5050000000000026 12.8900000000000006 20.6699999999999982
 26.5050000000000026 14.8350000000000009 18.7249999999999979
 24.5600000000000023 12.8900000000000006 22.6149999999999984
 24.5600000000000023 14.8350000000000009 24.5599999999999987
 26.5050000000000026 14.8350000000000009 22.6149999999999984
 24.5600000000000023 18.7250000000000014  8.9999999999999982
 26.5050000000000026 16.7800000000000011  8.9999999999999982
 24.5600000000000023 16.7800000000000011 10.9449999999999985
 24.5600000000000023 18.7250000000000014 12.8899999999999970
 26.5050000000000026 16.7800000000000011 12.8899999999999970
 26.5050000000000026 18.7250000000000014 10.9449999999999985
 24.5600000000000023 16.7800000000000011 14.8349999999999973
 24.5600000000000023 18.7250000000000014 16.7799999999999976
 26.5050000000000026 16.7800000000000011 16.7799999999999976
 26.5050000000000026 18.7250000000000014 14.8349999999999973
 24.5600000000000023 16.7800000000000011 18.7249999999999979
 24.5600000000000023 18.7250000000000014 20.6699999999999982
 26.5050000000000026 16.7800000000000011 20.6699999999999982
 26.5050000000000026 18.7250000000000014 18.7249999999999979
 24.5600000000000023 16.7800000000000011 22.6149999999999984
 24.5600000000000023 18.7250000000000014 24.5599999999999987
 26.5050000000000026 16.7800000000000011 24.5599999999999987
 26.5050000000000026 18.7250000000000014 22.6149999999999984
 24.5600000000000023 16.7800000000000011 26.5049999999999990
 26.5050000000000026 18.7250000000000014 26.5049999999999990
 24.5600000000000023 22.6150000000000020  8.9999999999999982
 26.5050000000000026 20.6700000000000017  8.9999999999999982
 24.5600000000000023 20.6700000000000017 10.9449999999999985
 24.5600000000000023 22.6150000000000020 12.8899999999999970
 26.5050000000000026 20.6700000000000017 12.8899999999999970
 26.5050000000000026 22.6150000000000020 10.9449999999999985
 24.5600000000000023 20.6700000000000017 14.8349999999999973
 24.5600000000000023 22.6150000000000020 16.7799999999999976
 26.5050000000000026 20.6700000000000017 16.7799999999999976
 26.5050000000000026 22.6150000000000020 14.8349999999999973
 24.5600000000000023 20.6700000000000017 18.7249999999999979
 24.5600000000000023 22.6150000000000020 20.6699999999999982
 26.5050000000000026 20.6700000000000017 20.6699999999999982
 26.5050000000000026 22.6150000000000020 18.7249999999999979
 24.5600000000000023 20.6700000000000017 22.6149999999999984
 24.5600000000000023 22.6150000000000020 24.5599999999999987
 26.5050000000000026 20.6700000000000017 24.5599999999999987
 26.5050000000000026 22.6150000000000020 22.6149999999999984
 24.5600000000000023 20.6700000000000017 26.5049999999999990
 26.5050000000000026 22.6150000000000020 26.5049999999999990
 24.5600000000000023 26.5050000000000026  8.9999999999999982
 26.5050000000000026 24.5600000000000023  8.9999999999999982
 24.5600000000000023 24.5600000000000023 10.9449999999999985
 24.5600000000000023 26.5050000000000026 12.8899999999999970
 26.5050000000000026 24.5600000000000023 12.8899999999999970
 26.5050000000000026 26.5050000000000026 10.9449999999999985
 24.5600000000000023 24.5600000000000023 14.8349999999999973
 24.5600000000000023 26.5050000000000026 16.7799999999999976
 26.5050000000000026 24.5600000000000023 16.7799999999999976
 26.5050000000000026 26.5050000000000026 14.8349999999999973
 24.5600000000000023 24.5600000000000023 18.7249999999999979
 24.5600000000000023 26.5050000000000026 20.6699999999999982
 26.5050000000000026 24.5600000000000023 20.6699999999999982
 26.5050000000000026 26.5050000000000026 18.7249999999999979
 24.5600000000000023 24.5600000000000023 22.6149999999999984
 24.5600000000000023 26.5050000000000026 24.5599999999999987
 26.5050000000000026 24.5600000000000023 24.5599999999999987
 26.5050000000000026 26.5050000000000026 22.6149999999999984
 24.5600000000000023 24.5600000000000023 26.5049999999999990
 24.5600000000000023 30.3950000000000031  8.9999999999999982
 26.5050000000000026 28.4500000000000028  8.9999999999999982
 24.5600000000000023 28.4500000000000028 10.9449999999999985
 24.5600000000000023 30.3950000000000031 12.8899999999999970
 26.5050000000000026 28.4500000000000028 12.8899999999999970
 26.5050000000000026 30.3950000000000031 10.9449999999999985
 24.5600000000000023 28.4500000000000028 14.8349999999999973
 24.5600000000000023 30.3950000000000031 16.7799999999999976
 26.5050000000000026 28.4500000000000028 16.7799999999999976
 26.5050000000000026 30.3950000000000031 14.8349999999999973
 24.5600000000000023 28.4500000000000028 18.7249999999999979
 24.5600000000000023 30.3950000000000031 20.6699999999999982
 26.5050000000000026 28.4500000000000028 20.6699999999999982
 26.5050000000000026 30.3950000000000031 18.7249999999999979
 24.5600000000000023 28.4500000000000028 22.6149999999999984
 24.5600000000000023 32.3400000000000034 10.9449999999999985
 26.5050000000000026 32.3400000000000034 12.8899999999999970
 24.5600000000000023 32.3400000000000034 14.8349999999999973
 26.5050000000000026 32.3400000000000034 16.7799999999999976
 24.5600000000000023 32.3400000000000034 18.7249999999999979
 28.4500000000000028 10.9450000000000003 12.8899999999999970
 28.4500000000000028 10.9450000000000003 16.7799999999999976
 28.4500000000000028 14.8350000000000009  8.9999999999999982
 28.4500000000000028 12.8900000000000006 10.9449999999999985
 28.4500000000000028 14.8350000000000009 12.8899999999999970
 30.3950000000000031 12.8900000000000006 12.8899999999999970
 30.3950000000000031 14.8350000000000009 10.9449999999999985
 28.4500000000000028 12.8900000000000006 14.8349999999999973
 28.4500000000000028 14.8350000000000009 16.7799999999999976
 30.3950000000000031 12.8900000000000006 16.7799999999999976
 30.3950000000000031 14.8350000000000009 14.8349999999999973
 28.4500000000000028 12.8900000000000006 18.7249999999999979
 28.4500000000000028 14.8350000000000009 20.6699999999999982
 30.3950000000000031 14.8350000000000009 18.7249999999999979
 28.4500000000000028 18.7250000000000014  8.9999999999999982
 30.3950000000000031 16.7800000000000011  8.9999999999999982
 28.4500000000000028 16.7800000000000011 10.9449999999999985
 28.4500000000000028 18.7250000000000014 12.8899999999999970
 30.3950000000000031 16.7800000000000011 12.8899999999999970
 30.3950000000000031 18.7250000000000014 10.9449999999999985
 28.4500000000000028 16.7800000000000011 14.8349999999999973
 28.4500000000000028 18.7250000000000014 16.7799999999999976
 30.3950000000000031 16.7800000000000011 16.7799999999999976
 30.3950000000000031 18.7250000000000014 14.8349999999999973
 28.4500000000000028 16.7800000000000011 18.7249999999999979
 28.4500000000000028 18.7250000000000014 20.6699999999999982
 30.3950000000000031 16.7800000000000011 20.6699999999999982
 30.3950000000000031 18.7250000000000014 18.7249999999999979
 28.4500000000000028 16.7800000000000011 22.6149999999999984
 28.4500000000000028 18.7250000000000014 24.5599999999999987
 30.3950000000000031 18.7250000000000014 22.6149999999999984
 28.4500000000000028 22.6150000000000020  8.9999999999999982
 30.3950000000000031 20.6700000000000017  8.9999999999999982
 28.4500000000000028 20.6700000000000017 10.9449999999999985
 28.4500000000000028 22.6150000000000020 12.8899999999999970
 30.3950000000000031 20.6700000000000017 12.8899999999999970
 30.3950000000000031 22.6150000000000020 10.9449999999999985
 28.4500000000000028 20.6700000000000017 14.8349999999999973
 28.4500000000000028 22.6150000000000020 16.7799999999999976
 30.3950000000000031 20.6700000000000017 16.7799999999999976
 30.3950000000000031 22.6150000000000020 14.8349999999999973
 28.4500000000000028 20.6700000000000017 18.7249999999999979
 28.4500000000000028 22.6150000000000020 20.6699999999999982
 30.3950000000000031 20.6700000000000017 20.6699999999999982
 30.3950000000000031 22.6150000000000020 18.7249999999999979
 28.4500000000000028 20.6700000000000017 22.6149999999999984
 28.4500000000000028 22.6150000000000020 24.5599999999999987
 30.3950000000000031 22.6150000000000020 22.6149999999999984
 28.4500000000000028 26.5050000000000026  8.9999999999999982
 30.3950000000000031 24.5600000000000023  8.9999999999999982
 28.4500000000000028 24.5600000000000023 10.9449999999999985
 28.4500000000000028 26.5050000000000026 12.8899999999999970
 30.3950000000000031 24.5600000000000023 12.8899999999999970
 30.3950000000000031 26.5050000000000026 10.9449999999999985
 28.4500000000000028 24.5600000000000023 14.8349999999999973
 28.4500000000000028 26.5050000000000026 16.7799999999999976
 30.3950000000000031 24.5600000000000023 16.7799999999999976
 30.3950000000000031 26.5050000000000026 14.8349999999999973
 28.4500000000000028 24.5600000000000023 18.7249999999999979
 28.4500000000000028 26.5050000000000026 20.6699999999999982
 30.3950000000000031 24.5600000000000023 20.6699999999999982
 30.3950000000000031 26.5050000000000026 18.7249999999999979
 28.4500000000000028 24.5600000000000023 22.6149999999999984
 28.4500000000000028 28.4500000000000028 10.9449999999999985
 28.4500000000000028 30.3950000000000031 12.8899999999999970
 30.3950000000000031 28.4500000000000028 12.8899999999999970
 28.4500000000000028 28.4500000000000028 14.8349999999999973
 28.4500000000000028 30.3950000000000031 16.7799999999999976
 30.3950000000000031 28.4500000000000028 16.7799999999999976
 28.4500000000000028 28.4500000000000028 18.7249999999999979
 32.3400000000000034 14.8350000000000009 12.8899999999999970
 32.3400000000000034 14.8350000000000009 16.7799999999999976
 32.3400000000000034 18.7250000000000014  8.9999999999999982
 32.3400000000000034 16.7800000000000011 10.9449999999999985
 32.3400000000000034 18.7250000000000014 12.8899999999999970
 32.3400000000000034 16.7800000000000011 14.8349999999999973
 32.3400000000000034 18.7250000000000014 16.7799999999999976
 32.3400000000000034 16.7800000000000011 18.7249999999999979
 32.3400000000000034 18.7250000000000014 20.6699999999999982
 32.3400000000000034 22.6150000000000020  8.9999999999999982
 32.3400000000000034 20.6700000000000017 10.9449999999999985
 32.3400000000000034 22.6150000000000020 12.8899999999999970
 32.3400000000000034 20.6700000000000017 14.8349999999999973
 32.3400000000000034 22.6150000000000020 16.7799999999999976
 32.3400000000000034 20.6700000000000017 18.7249999999999979
 32.3400000000000034 22.6150000000000020 20.6699999999999982
 32.3400000000000034 24.5600000000000023 10.9449999999999985
 32.3400000000000034 26.5050000000000026 12.8899999999999970
 32.3400000000000034 24.5600000000000023 14.8349999999999973
 32.3400000000000034 26.5050000000000026 16.7799999999999976
 32.3400000000000034 24.5600000000000023 18.7249999999999979
