RandomStructure-5
1.0
    5.641030     0.006231    -0.002400
    0.107820     6.324482    -0.118609
   -0.204604    -0.039124     4.873803
Zn
3
Direct
  0.270531   0.156311   0.810639
  0.353802   0.749319   0.845983
  0.759571   0.557990   0.787718
