RandomStructure-2
1.0
    3.399387     0.144426    -0.202297
   -0.173994     6.161768    -0.205257
   -0.239956    -0.039671     2.494683
C Cl Mg
9 17 16
Direct
  0.131601   0.079853   0.182095
  0.050034   0.319275   0.295866
  0.833253   0.131194   0.081392
  0.590138   0.196440   0.137714
  0.143058   0.812331   0.282971
  0.642997   0.282275   0.853732
  0.508692   0.733388   0.624706
  0.226536   0.557148   0.480305
  0.474029   0.564721   0.132742
  0.288407   0.820699   0.000476
  0.291540   0.685341   0.385671
  0.798478   0.040767   0.298282
  0.768554   0.727731   0.352086
  0.228497   0.480127   0.484773
  0.415776   0.772504   0.293012
  0.453417   0.735801   0.917314
  0.208082   0.464035   0.503803
  0.393847   0.990990   0.364605
  0.978446   0.575892   0.013943
  0.310255   0.392257   0.203792
  0.095053   0.904963   0.994268
  0.117931   0.308846   0.833833
  0.745537   0.335609   0.361064
  0.120102   0.602128   0.689189
  0.113677   0.687262   0.949767
  0.358828   0.067739   0.254470
  0.930122   0.664211   0.853461
  0.480546   0.240706   0.901660
  0.076493   0.806004   0.691553
  0.974595   0.785682   0.330522
  0.067674   0.291100   0.944424
  0.359094   0.225584   0.035036
  0.804114   0.180152   0.704722
  0.386075   0.637671   0.947942
  0.372933   0.575676   0.105688
  0.802322   0.838553   0.829221
  0.016641   0.161978   0.064753
  0.637522   0.445675   0.272195
  0.833669   0.649665   0.170946
  0.996543   0.425039   0.167422
  0.320891   0.149600   0.828245
  0.614125   0.709123   0.671382
