VeryLarge_POSCAR_13x13x13_C
1.0
18.4600000000 0.0000000000 0.0000000000
0.0000000000 18.4600000000 0.0000000000
0.0000000000 0.0000000000 18.4600000000
C
2197
Direct
0.0384615385 0.0384615385 0.0384615385
0.0384615385 0.0384615385 0.1153846154
0.0384615385 0.0384615385 0.1923076923
0.0384615385 0.0384615385 0.2692307692
0.0384615385 0.0384615385 0.3461538462
0.0384615385 0.0384615385 0.4230769231
0.0384615385 0.0384615385 0.5000000000
0.0384615385 0.0384615385 0.5769230769
0.0384615385 0.0384615385 0.6538461538
0.0384615385 0.0384615385 0.7307692308
0.0384615385 0.0384615385 0.8076923077
0.0384615385 0.0384615385 0.8846153846
0.0384615385 0.0384615385 0.9615384615
0.0384615385 0.1153846154 0.0384615385
0.0384615385 0.1153846154 0.1153846154
0.0384615385 0.1153846154 0.1923076923
0.0384615385 0.1153846154 0.2692307692
0.0384615385 0.1153846154 0.3461538462
0.0384615385 0.1153846154 0.4230769231
0.0384615385 0.1153846154 0.5000000000
0.0384615385 0.1153846154 0.5769230769
0.0384615385 0.1153846154 0.6538461538
0.0384615385 0.1153846154 0.7307692308
0.0384615385 0.1153846154 0.8076923077
0.0384615385 0.1153846154 0.8846153846
0.0384615385 0.1153846154 0.9615384615
0.0384615385 0.1923076923 0.0384615385
0.0384615385 0.1923076923 0.1153846154
0.0384615385 0.1923076923 0.1923076923
0.0384615385 0.1923076923 0.2692307692
0.0384615385 0.1923076923 0.3461538462
0.0384615385 0.1923076923 0.4230769231
0.0384615385 0.1923076923 0.5000000000
0.0384615385 0.1923076923 0.5769230769
0.0384615385 0.1923076923 0.6538461538
0.0384615385 0.1923076923 0.7307692308
0.0384615385 0.1923076923 0.8076923077
0.0384615385 0.1923076923 0.8846153846
0.0384615385 0.1923076923 0.9615384615
0.0384615385 0.2692307692 0.0384615385
0.0384615385 0.2692307692 0.1153846154
0.0384615385 0.2692307692 0.1923076923
0.0384615385 0.2692307692 0.2692307692
0.0384615385 0.2692307692 0.3461538462
0.0384615385 0.2692307692 0.4230769231
0.0384615385 0.2692307692 0.5000000000
0.0384615385 0.2692307692 0.5769230769
0.0384615385 0.2692307692 0.6538461538
0.0384615385 0.2692307692 0.7307692308
0.0384615385 0.2692307692 0.8076923077
0.0384615385 0.2692307692 0.8846153846
0.0384615385 0.2692307692 0.9615384615
0.0384615385 0.3461538462 0.0384615385
0.0384615385 0.3461538462 0.1153846154
0.0384615385 0.3461538462 0.1923076923
0.0384615385 0.3461538462 0.2692307692
0.0384615385 0.3461538462 0.3461538462
0.0384615385 0.3461538462 0.4230769231
0.0384615385 0.3461538462 0.5000000000
0.0384615385 0.3461538462 0.5769230769
0.0384615385 0.3461538462 0.6538461538
0.0384615385 0.3461538462 0.7307692308
0.0384615385 0.3461538462 0.8076923077
0.0384615385 0.3461538462 0.8846153846
0.0384615385 0.3461538462 0.9615384615
0.0384615385 0.4230769231 0.0384615385
0.0384615385 0.4230769231 0.1153846154
0.0384615385 0.4230769231 0.1923076923
0.0384615385 0.4230769231 0.2692307692
0.0384615385 0.4230769231 0.3461538462
0.0384615385 0.4230769231 0.4230769231
0.0384615385 0.4230769231 0.5000000000
0.0384615385 0.4230769231 0.5769230769
0.0384615385 0.4230769231 0.6538461538
0.0384615385 0.4230769231 0.7307692308
0.0384615385 0.4230769231 0.8076923077
0.0384615385 0.4230769231 0.8846153846
0.0384615385 0.4230769231 0.9615384615
0.0384615385 0.5000000000 0.0384615385
0.0384615385 0.5000000000 0.1153846154
0.0384615385 0.5000000000 0.1923076923
0.0384615385 0.5000000000 0.2692307692
0.0384615385 0.5000000000 0.3461538462
0.0384615385 0.5000000000 0.4230769231
0.0384615385 0.5000000000 0.5000000000
0.0384615385 0.5000000000 0.5769230769
0.0384615385 0.5000000000 0.6538461538
0.0384615385 0.5000000000 0.7307692308
0.0384615385 0.5000000000 0.8076923077
0.0384615385 0.5000000000 0.8846153846
0.0384615385 0.5000000000 0.9615384615
0.0384615385 0.5769230769 0.0384615385
0.0384615385 0.5769230769 0.1153846154
0.0384615385 0.5769230769 0.1923076923
0.0384615385 0.5769230769 0.2692307692
0.0384615385 0.5769230769 0.3461538462
0.0384615385 0.5769230769 0.4230769231
0.0384615385 0.5769230769 0.5000000000
0.0384615385 0.5769230769 0.5769230769
0.0384615385 0.5769230769 0.6538461538
0.0384615385 0.5769230769 0.7307692308
0.0384615385 0.5769230769 0.8076923077
0.0384615385 0.5769230769 0.8846153846
0.0384615385 0.5769230769 0.9615384615
0.0384615385 0.6538461538 0.0384615385
0.0384615385 0.6538461538 0.1153846154
0.0384615385 0.6538461538 0.1923076923
0.0384615385 0.6538461538 0.2692307692
0.0384615385 0.6538461538 0.3461538462
0.0384615385 0.6538461538 0.4230769231
0.0384615385 0.6538461538 0.5000000000
0.0384615385 0.6538461538 0.5769230769
0.0384615385 0.6538461538 0.6538461538
0.0384615385 0.6538461538 0.7307692308
0.0384615385 0.6538461538 0.8076923077
0.0384615385 0.6538461538 0.8846153846
0.0384615385 0.6538461538 0.9615384615
0.0384615385 0.7307692308 0.0384615385
0.0384615385 0.7307692308 0.1153846154
0.0384615385 0.7307692308 0.1923076923
0.0384615385 0.7307692308 0.2692307692
0.0384615385 0.7307692308 0.3461538462
0.0384615385 0.7307692308 0.4230769231
0.0384615385 0.7307692308 0.5000000000
0.0384615385 0.7307692308 0.5769230769
0.0384615385 0.7307692308 0.6538461538
0.0384615385 0.7307692308 0.7307692308
0.0384615385 0.7307692308 0.8076923077
0.0384615385 0.7307692308 0.8846153846
0.0384615385 0.7307692308 0.9615384615
0.0384615385 0.8076923077 0.0384615385
0.0384615385 0.8076923077 0.1153846154
0.0384615385 0.8076923077 0.1923076923
0.0384615385 0.8076923077 0.2692307692
0.0384615385 0.8076923077 0.3461538462
0.0384615385 0.8076923077 0.4230769231
0.0384615385 0.8076923077 0.5000000000
0.0384615385 0.8076923077 0.5769230769
0.0384615385 0.8076923077 0.6538461538
0.0384615385 0.8076923077 0.7307692308
0.0384615385 0.8076923077 0.8076923077
0.0384615385 0.8076923077 0.8846153846
0.0384615385 0.8076923077 0.9615384615
0.0384615385 0.8846153846 0.0384615385
0.0384615385 0.8846153846 0.1153846154
0.0384615385 0.8846153846 0.1923076923
0.0384615385 0.8846153846 0.2692307692
0.0384615385 0.8846153846 0.3461538462
0.0384615385 0.8846153846 0.4230769231
0.0384615385 0.8846153846 0.5000000000
0.0384615385 0.8846153846 0.5769230769
0.0384615385 0.8846153846 0.6538461538
0.0384615385 0.8846153846 0.7307692308
0.0384615385 0.8846153846 0.8076923077
0.0384615385 0.8846153846 0.8846153846
0.0384615385 0.8846153846 0.9615384615
0.0384615385 0.9615384615 0.0384615385
0.0384615385 0.9615384615 0.1153846154
0.0384615385 0.9615384615 0.1923076923
0.0384615385 0.9615384615 0.2692307692
0.0384615385 0.9615384615 0.3461538462
0.0384615385 0.9615384615 0.4230769231
0.0384615385 0.9615384615 0.5000000000
0.0384615385 0.9615384615 0.5769230769
0.0384615385 0.9615384615 0.6538461538
0.0384615385 0.9615384615 0.7307692308
0.0384615385 0.9615384615 0.8076923077
0.0384615385 0.9615384615 0.8846153846
0.0384615385 0.9615384615 0.9615384615
0.1153846154 0.0384615385 0.0384615385
0.1153846154 0.0384615385 0.1153846154
0.1153846154 0.0384615385 0.1923076923
0.1153846154 0.0384615385 0.2692307692
0.1153846154 0.0384615385 0.3461538462
0.1153846154 0.0384615385 0.4230769231
0.1153846154 0.0384615385 0.5000000000
0.1153846154 0.0384615385 0.5769230769
0.1153846154 0.0384615385 0.6538461538
0.1153846154 0.0384615385 0.7307692308
0.1153846154 0.0384615385 0.8076923077
0.1153846154 0.0384615385 0.8846153846
0.1153846154 0.0384615385 0.9615384615
0.1153846154 0.1153846154 0.0384615385
0.1153846154 0.1153846154 0.1153846154
0.1153846154 0.1153846154 0.1923076923
0.1153846154 0.1153846154 0.2692307692
0.1153846154 0.1153846154 0.3461538462
0.1153846154 0.1153846154 0.4230769231
0.1153846154 0.1153846154 0.5000000000
0.1153846154 0.1153846154 0.5769230769
0.1153846154 0.1153846154 0.6538461538
0.1153846154 0.1153846154 0.7307692308
0.1153846154 0.1153846154 0.8076923077
0.1153846154 0.1153846154 0.8846153846
0.1153846154 0.1153846154 0.9615384615
0.1153846154 0.1923076923 0.0384615385
0.1153846154 0.1923076923 0.1153846154
0.1153846154 0.1923076923 0.1923076923
0.1153846154 0.1923076923 0.2692307692
0.1153846154 0.1923076923 0.3461538462
0.1153846154 0.1923076923 0.4230769231
0.1153846154 0.1923076923 0.5000000000
0.1153846154 0.1923076923 0.5769230769
0.1153846154 0.1923076923 0.6538461538
0.1153846154 0.1923076923 0.7307692308
0.1153846154 0.1923076923 0.8076923077
0.1153846154 0.1923076923 0.8846153846
0.1153846154 0.1923076923 0.9615384615
0.1153846154 0.2692307692 0.0384615385
0.1153846154 0.2692307692 0.1153846154
0.1153846154 0.2692307692 0.1923076923
0.1153846154 0.2692307692 0.2692307692
0.1153846154 0.2692307692 0.3461538462
0.1153846154 0.2692307692 0.4230769231
0.1153846154 0.2692307692 0.5000000000
0.1153846154 0.2692307692 0.5769230769
0.1153846154 0.2692307692 0.6538461538
0.1153846154 0.2692307692 0.7307692308
0.1153846154 0.2692307692 0.8076923077
0.1153846154 0.2692307692 0.8846153846
0.1153846154 0.2692307692 0.9615384615
0.1153846154 0.3461538462 0.0384615385
0.1153846154 0.3461538462 0.1153846154
0.1153846154 0.3461538462 0.1923076923
0.1153846154 0.3461538462 0.2692307692
0.1153846154 0.3461538462 0.3461538462
0.1153846154 0.3461538462 0.4230769231
0.1153846154 0.3461538462 0.5000000000
0.1153846154 0.3461538462 0.5769230769
0.1153846154 0.3461538462 0.6538461538
0.1153846154 0.3461538462 0.7307692308
0.1153846154 0.3461538462 0.8076923077
0.1153846154 0.3461538462 0.8846153846
0.1153846154 0.3461538462 0.9615384615
0.1153846154 0.4230769231 0.0384615385
0.1153846154 0.4230769231 0.1153846154
0.1153846154 0.4230769231 0.1923076923
0.1153846154 0.4230769231 0.2692307692
0.1153846154 0.4230769231 0.3461538462
0.1153846154 0.4230769231 0.4230769231
0.1153846154 0.4230769231 0.5000000000
0.1153846154 0.4230769231 0.5769230769
0.1153846154 0.4230769231 0.6538461538
0.1153846154 0.4230769231 0.7307692308
0.1153846154 0.4230769231 0.8076923077
0.1153846154 0.4230769231 0.8846153846
0.1153846154 0.4230769231 0.9615384615
0.1153846154 0.5000000000 0.0384615385
0.1153846154 0.5000000000 0.1153846154
0.1153846154 0.5000000000 0.1923076923
0.1153846154 0.5000000000 0.2692307692
0.1153846154 0.5000000000 0.3461538462
0.1153846154 0.5000000000 0.4230769231
0.1153846154 0.5000000000 0.5000000000
0.1153846154 0.5000000000 0.5769230769
0.1153846154 0.5000000000 0.6538461538
0.1153846154 0.5000000000 0.7307692308
0.1153846154 0.5000000000 0.8076923077
0.1153846154 0.5000000000 0.8846153846
0.1153846154 0.5000000000 0.9615384615
0.1153846154 0.5769230769 0.0384615385
0.1153846154 0.5769230769 0.1153846154
0.1153846154 0.5769230769 0.1923076923
0.1153846154 0.5769230769 0.2692307692
0.1153846154 0.5769230769 0.3461538462
0.1153846154 0.5769230769 0.4230769231
0.1153846154 0.5769230769 0.5000000000
0.1153846154 0.5769230769 0.5769230769
0.1153846154 0.5769230769 0.6538461538
0.1153846154 0.5769230769 0.7307692308
0.1153846154 0.5769230769 0.8076923077
0.1153846154 0.5769230769 0.8846153846
0.1153846154 0.5769230769 0.9615384615
0.1153846154 0.6538461538 0.0384615385
0.1153846154 0.6538461538 0.1153846154
0.1153846154 0.6538461538 0.1923076923
0.1153846154 0.6538461538 0.2692307692
0.1153846154 0.6538461538 0.3461538462
0.1153846154 0.6538461538 0.4230769231
0.1153846154 0.6538461538 0.5000000000
0.1153846154 0.6538461538 0.5769230769
0.1153846154 0.6538461538 0.6538461538
0.1153846154 0.6538461538 0.7307692308
0.1153846154 0.6538461538 0.8076923077
0.1153846154 0.6538461538 0.8846153846
0.1153846154 0.6538461538 0.9615384615
0.1153846154 0.7307692308 0.0384615385
0.1153846154 0.7307692308 0.1153846154
0.1153846154 0.7307692308 0.1923076923
0.1153846154 0.7307692308 0.2692307692
0.1153846154 0.7307692308 0.3461538462
0.1153846154 0.7307692308 0.4230769231
0.1153846154 0.7307692308 0.5000000000
0.1153846154 0.7307692308 0.5769230769
0.1153846154 0.7307692308 0.6538461538
0.1153846154 0.7307692308 0.7307692308
0.1153846154 0.7307692308 0.8076923077
0.1153846154 0.7307692308 0.8846153846
0.1153846154 0.7307692308 0.9615384615
0.1153846154 0.8076923077 0.0384615385
0.1153846154 0.8076923077 0.1153846154
0.1153846154 0.8076923077 0.1923076923
0.1153846154 0.8076923077 0.2692307692
0.1153846154 0.8076923077 0.3461538462
0.1153846154 0.8076923077 0.4230769231
0.1153846154 0.8076923077 0.5000000000
0.1153846154 0.8076923077 0.5769230769
0.1153846154 0.8076923077 0.6538461538
0.1153846154 0.8076923077 0.7307692308
0.1153846154 0.8076923077 0.8076923077
0.1153846154 0.8076923077 0.8846153846
0.1153846154 0.8076923077 0.9615384615
0.1153846154 0.8846153846 0.0384615385
0.1153846154 0.8846153846 0.1153846154
0.1153846154 0.8846153846 0.1923076923
0.1153846154 0.8846153846 0.2692307692
0.1153846154 0.8846153846 0.3461538462
0.1153846154 0.8846153846 0.4230769231
0.1153846154 0.8846153846 0.5000000000
0.1153846154 0.8846153846 0.5769230769
0.1153846154 0.8846153846 0.6538461538
0.1153846154 0.8846153846 0.7307692308
0.1153846154 0.8846153846 0.8076923077
0.1153846154 0.8846153846 0.8846153846
0.1153846154 0.8846153846 0.9615384615
0.1153846154 0.9615384615 0.0384615385
0.1153846154 0.9615384615 0.1153846154
0.1153846154 0.9615384615 0.1923076923
0.1153846154 0.9615384615 0.2692307692
0.1153846154 0.9615384615 0.3461538462
0.1153846154 0.9615384615 0.4230769231
0.1153846154 0.9615384615 0.5000000000
0.1153846154 0.9615384615 0.5769230769
0.1153846154 0.9615384615 0.6538461538
0.1153846154 0.9615384615 0.7307692308
0.1153846154 0.9615384615 0.8076923077
0.1153846154 0.9615384615 0.8846153846
0.1153846154 0.9615384615 0.9615384615
0.1923076923 0.0384615385 0.0384615385
0.1923076923 0.0384615385 0.1153846154
0.1923076923 0.0384615385 0.1923076923
0.1923076923 0.0384615385 0.2692307692
0.1923076923 0.0384615385 0.3461538462
0.1923076923 0.0384615385 0.4230769231
0.1923076923 0.0384615385 0.5000000000
0.1923076923 0.0384615385 0.5769230769
0.1923076923 0.0384615385 0.6538461538
0.1923076923 0.0384615385 0.7307692308
0.1923076923 0.0384615385 0.8076923077
0.1923076923 0.0384615385 0.8846153846
0.1923076923 0.0384615385 0.9615384615
0.1923076923 0.1153846154 0.0384615385
0.1923076923 0.1153846154 0.1153846154
0.1923076923 0.1153846154 0.1923076923
0.1923076923 0.1153846154 0.2692307692
0.1923076923 0.1153846154 0.3461538462
0.1923076923 0.1153846154 0.4230769231
0.1923076923 0.1153846154 0.5000000000
0.1923076923 0.1153846154 0.5769230769
0.1923076923 0.1153846154 0.6538461538
0.1923076923 0.1153846154 0.7307692308
0.1923076923 0.1153846154 0.8076923077
0.1923076923 0.1153846154 0.8846153846
0.1923076923 0.1153846154 0.9615384615
0.1923076923 0.1923076923 0.0384615385
0.1923076923 0.1923076923 0.1153846154
0.1923076923 0.1923076923 0.1923076923
0.1923076923 0.1923076923 0.2692307692
0.1923076923 0.1923076923 0.3461538462
0.1923076923 0.1923076923 0.4230769231
0.1923076923 0.1923076923 0.5000000000
0.1923076923 0.1923076923 0.5769230769
0.1923076923 0.1923076923 0.6538461538
0.1923076923 0.1923076923 0.7307692308
0.1923076923 0.1923076923 0.8076923077
0.1923076923 0.1923076923 0.8846153846
0.1923076923 0.1923076923 0.9615384615
0.1923076923 0.2692307692 0.0384615385
0.1923076923 0.2692307692 0.1153846154
0.1923076923 0.2692307692 0.1923076923
0.1923076923 0.2692307692 0.2692307692
0.1923076923 0.2692307692 0.3461538462
0.1923076923 0.2692307692 0.4230769231
0.1923076923 0.2692307692 0.5000000000
0.1923076923 0.2692307692 0.5769230769
0.1923076923 0.2692307692 0.6538461538
0.1923076923 0.2692307692 0.7307692308
0.1923076923 0.2692307692 0.8076923077
0.1923076923 0.2692307692 0.8846153846
0.1923076923 0.2692307692 0.9615384615
0.1923076923 0.3461538462 0.0384615385
0.1923076923 0.3461538462 0.1153846154
0.1923076923 0.3461538462 0.1923076923
0.1923076923 0.3461538462 0.2692307692
0.1923076923 0.3461538462 0.3461538462
0.1923076923 0.3461538462 0.4230769231
0.1923076923 0.3461538462 0.5000000000
0.1923076923 0.3461538462 0.5769230769
0.1923076923 0.3461538462 0.6538461538
0.1923076923 0.3461538462 0.7307692308
0.1923076923 0.3461538462 0.8076923077
0.1923076923 0.3461538462 0.8846153846
0.1923076923 0.3461538462 0.9615384615
0.1923076923 0.4230769231 0.0384615385
0.1923076923 0.4230769231 0.1153846154
0.1923076923 0.4230769231 0.1923076923
0.1923076923 0.4230769231 0.2692307692
0.1923076923 0.4230769231 0.3461538462
0.1923076923 0.4230769231 0.4230769231
0.1923076923 0.4230769231 0.5000000000
0.1923076923 0.4230769231 0.5769230769
0.1923076923 0.4230769231 0.6538461538
0.1923076923 0.4230769231 0.7307692308
0.1923076923 0.4230769231 0.8076923077
0.1923076923 0.4230769231 0.8846153846
0.1923076923 0.4230769231 0.9615384615
0.1923076923 0.5000000000 0.0384615385
0.1923076923 0.5000000000 0.1153846154
0.1923076923 0.5000000000 0.1923076923
0.1923076923 0.5000000000 0.2692307692
0.1923076923 0.5000000000 0.3461538462
0.1923076923 0.5000000000 0.4230769231
0.1923076923 0.5000000000 0.5000000000
0.1923076923 0.5000000000 0.5769230769
0.1923076923 0.5000000000 0.6538461538
0.1923076923 0.5000000000 0.7307692308
0.1923076923 0.5000000000 0.8076923077
0.1923076923 0.5000000000 0.8846153846
0.1923076923 0.5000000000 0.9615384615
0.1923076923 0.5769230769 0.0384615385
0.1923076923 0.5769230769 0.1153846154
0.1923076923 0.5769230769 0.1923076923
0.1923076923 0.5769230769 0.2692307692
0.1923076923 0.5769230769 0.3461538462
0.1923076923 0.5769230769 0.4230769231
0.1923076923 0.5769230769 0.5000000000
0.1923076923 0.5769230769 0.5769230769
0.1923076923 0.5769230769 0.6538461538
0.1923076923 0.5769230769 0.7307692308
0.1923076923 0.5769230769 0.8076923077
0.1923076923 0.5769230769 0.8846153846
0.1923076923 0.5769230769 0.9615384615
0.1923076923 0.6538461538 0.0384615385
0.1923076923 0.6538461538 0.1153846154
0.1923076923 0.6538461538 0.1923076923
0.1923076923 0.6538461538 0.2692307692
0.1923076923 0.6538461538 0.3461538462
0.1923076923 0.6538461538 0.4230769231
0.1923076923 0.6538461538 0.5000000000
0.1923076923 0.6538461538 0.5769230769
0.1923076923 0.6538461538 0.6538461538
0.1923076923 0.6538461538 0.7307692308
0.1923076923 0.6538461538 0.8076923077
0.1923076923 0.6538461538 0.8846153846
0.1923076923 0.6538461538 0.9615384615
0.1923076923 0.7307692308 0.0384615385
0.1923076923 0.7307692308 0.1153846154
0.1923076923 0.7307692308 0.1923076923
0.1923076923 0.7307692308 0.2692307692
0.1923076923 0.7307692308 0.3461538462
0.1923076923 0.7307692308 0.4230769231
0.1923076923 0.7307692308 0.5000000000
0.1923076923 0.7307692308 0.5769230769
0.1923076923 0.7307692308 0.6538461538
0.1923076923 0.7307692308 0.7307692308
0.1923076923 0.7307692308 0.8076923077
0.1923076923 0.7307692308 0.8846153846
0.1923076923 0.7307692308 0.9615384615
0.1923076923 0.8076923077 0.0384615385
0.1923076923 0.8076923077 0.1153846154
0.1923076923 0.8076923077 0.1923076923
0.1923076923 0.8076923077 0.2692307692
0.1923076923 0.8076923077 0.3461538462
0.1923076923 0.8076923077 0.4230769231
0.1923076923 0.8076923077 0.5000000000
0.1923076923 0.8076923077 0.5769230769
0.1923076923 0.8076923077 0.6538461538
0.1923076923 0.8076923077 0.7307692308
0.1923076923 0.8076923077 0.8076923077
0.1923076923 0.8076923077 0.8846153846
0.1923076923 0.8076923077 0.9615384615
0.1923076923 0.8846153846 0.0384615385
0.1923076923 0.8846153846 0.1153846154
0.1923076923 0.8846153846 0.1923076923
0.1923076923 0.8846153846 0.2692307692
0.1923076923 0.8846153846 0.3461538462
0.1923076923 0.8846153846 0.4230769231
0.1923076923 0.8846153846 0.5000000000
0.1923076923 0.8846153846 0.5769230769
0.1923076923 0.8846153846 0.6538461538
0.1923076923 0.8846153846 0.7307692308
0.1923076923 0.8846153846 0.8076923077
0.1923076923 0.8846153846 0.8846153846
0.1923076923 0.8846153846 0.9615384615
0.1923076923 0.9615384615 0.0384615385
0.1923076923 0.9615384615 0.1153846154
0.1923076923 0.9615384615 0.1923076923
0.1923076923 0.9615384615 0.2692307692
0.1923076923 0.9615384615 0.3461538462
0.1923076923 0.9615384615 0.4230769231
0.1923076923 0.9615384615 0.5000000000
0.1923076923 0.9615384615 0.5769230769
0.1923076923 0.9615384615 0.6538461538
0.1923076923 0.9615384615 0.7307692308
0.1923076923 0.9615384615 0.8076923077
0.1923076923 0.9615384615 0.8846153846
0.1923076923 0.9615384615 0.9615384615
0.2692307692 0.0384615385 0.0384615385
0.2692307692 0.0384615385 0.1153846154
0.2692307692 0.0384615385 0.1923076923
0.2692307692 0.0384615385 0.2692307692
0.2692307692 0.0384615385 0.3461538462
0.2692307692 0.0384615385 0.4230769231
0.2692307692 0.0384615385 0.5000000000
0.2692307692 0.0384615385 0.5769230769
0.2692307692 0.0384615385 0.6538461538
0.2692307692 0.0384615385 0.7307692308
0.2692307692 0.0384615385 0.8076923077
0.2692307692 0.0384615385 0.8846153846
0.2692307692 0.0384615385 0.9615384615
0.2692307692 0.1153846154 0.0384615385
0.2692307692 0.1153846154 0.1153846154
0.2692307692 0.1153846154 0.1923076923
0.2692307692 0.1153846154 0.2692307692
0.2692307692 0.1153846154 0.3461538462
0.2692307692 0.1153846154 0.4230769231
0.2692307692 0.1153846154 0.5000000000
0.2692307692 0.1153846154 0.5769230769
0.2692307692 0.1153846154 0.6538461538
0.2692307692 0.1153846154 0.7307692308
0.2692307692 0.1153846154 0.8076923077
0.2692307692 0.1153846154 0.8846153846
0.2692307692 0.1153846154 0.9615384615
0.2692307692 0.1923076923 0.0384615385
0.2692307692 0.1923076923 0.1153846154
0.2692307692 0.1923076923 0.1923076923
0.2692307692 0.1923076923 0.2692307692
0.2692307692 0.1923076923 0.3461538462
0.2692307692 0.1923076923 0.4230769231
0.2692307692 0.1923076923 0.5000000000
0.2692307692 0.1923076923 0.5769230769
0.2692307692 0.1923076923 0.6538461538
0.2692307692 0.1923076923 0.7307692308
0.2692307692 0.1923076923 0.8076923077
0.2692307692 0.1923076923 0.8846153846
0.2692307692 0.1923076923 0.9615384615
0.2692307692 0.2692307692 0.0384615385
0.2692307692 0.2692307692 0.1153846154
0.2692307692 0.2692307692 0.1923076923
0.2692307692 0.2692307692 0.2692307692
0.2692307692 0.2692307692 0.3461538462
0.2692307692 0.2692307692 0.4230769231
0.2692307692 0.2692307692 0.5000000000
0.2692307692 0.2692307692 0.5769230769
0.2692307692 0.2692307692 0.6538461538
0.2692307692 0.2692307692 0.7307692308
0.2692307692 0.2692307692 0.8076923077
0.2692307692 0.2692307692 0.8846153846
0.2692307692 0.2692307692 0.9615384615
0.2692307692 0.3461538462 0.0384615385
0.2692307692 0.3461538462 0.1153846154
0.2692307692 0.3461538462 0.1923076923
0.2692307692 0.3461538462 0.2692307692
0.2692307692 0.3461538462 0.3461538462
0.2692307692 0.3461538462 0.4230769231
0.2692307692 0.3461538462 0.5000000000
0.2692307692 0.3461538462 0.5769230769
0.2692307692 0.3461538462 0.6538461538
0.2692307692 0.3461538462 0.7307692308
0.2692307692 0.3461538462 0.8076923077
0.2692307692 0.3461538462 0.8846153846
0.2692307692 0.3461538462 0.9615384615
0.2692307692 0.4230769231 0.0384615385
0.2692307692 0.4230769231 0.1153846154
0.2692307692 0.4230769231 0.1923076923
0.2692307692 0.4230769231 0.2692307692
0.2692307692 0.4230769231 0.3461538462
0.2692307692 0.4230769231 0.4230769231
0.2692307692 0.4230769231 0.5000000000
0.2692307692 0.4230769231 0.5769230769
0.2692307692 0.4230769231 0.6538461538
0.2692307692 0.4230769231 0.7307692308
0.2692307692 0.4230769231 0.8076923077
0.2692307692 0.4230769231 0.8846153846
0.2692307692 0.4230769231 0.9615384615
0.2692307692 0.5000000000 0.0384615385
0.2692307692 0.5000000000 0.1153846154
0.2692307692 0.5000000000 0.1923076923
0.2692307692 0.5000000000 0.2692307692
0.2692307692 0.5000000000 0.3461538462
0.2692307692 0.5000000000 0.4230769231
0.2692307692 0.5000000000 0.5000000000
0.2692307692 0.5000000000 0.5769230769
0.2692307692 0.5000000000 0.6538461538
0.2692307692 0.5000000000 0.7307692308
0.2692307692 0.5000000000 0.8076923077
0.2692307692 0.5000000000 0.8846153846
0.2692307692 0.5000000000 0.9615384615
0.2692307692 0.5769230769 0.0384615385
0.2692307692 0.5769230769 0.1153846154
0.2692307692 0.5769230769 0.1923076923
0.2692307692 0.5769230769 0.2692307692
0.2692307692 0.5769230769 0.3461538462
0.2692307692 0.5769230769 0.4230769231
0.2692307692 0.5769230769 0.5000000000
0.2692307692 0.5769230769 0.5769230769
0.2692307692 0.5769230769 0.6538461538
0.2692307692 0.5769230769 0.7307692308
0.2692307692 0.5769230769 0.8076923077
0.2692307692 0.5769230769 0.8846153846
0.2692307692 0.5769230769 0.9615384615
0.2692307692 0.6538461538 0.0384615385
0.2692307692 0.6538461538 0.1153846154
0.2692307692 0.6538461538 0.1923076923
0.2692307692 0.6538461538 0.2692307692
0.2692307692 0.6538461538 0.3461538462
0.2692307692 0.6538461538 0.4230769231
0.2692307692 0.6538461538 0.5000000000
0.2692307692 0.6538461538 0.5769230769
0.2692307692 0.6538461538 0.6538461538
0.2692307692 0.6538461538 0.7307692308
0.2692307692 0.6538461538 0.8076923077
0.2692307692 0.6538461538 0.8846153846
0.2692307692 0.6538461538 0.9615384615
0.2692307692 0.7307692308 0.0384615385
0.2692307692 0.7307692308 0.1153846154
0.2692307692 0.7307692308 0.1923076923
0.2692307692 0.7307692308 0.2692307692
0.2692307692 0.7307692308 0.3461538462
0.2692307692 0.7307692308 0.4230769231
0.2692307692 0.7307692308 0.5000000000
0.2692307692 0.7307692308 0.5769230769
0.2692307692 0.7307692308 0.6538461538
0.2692307692 0.7307692308 0.7307692308
0.2692307692 0.7307692308 0.8076923077
0.2692307692 0.7307692308 0.8846153846
0.2692307692 0.7307692308 0.9615384615
0.2692307692 0.8076923077 0.0384615385
0.2692307692 0.8076923077 0.1153846154
0.2692307692 0.8076923077 0.1923076923
0.2692307692 0.8076923077 0.2692307692
0.2692307692 0.8076923077 0.3461538462
0.2692307692 0.8076923077 0.4230769231
0.2692307692 0.8076923077 0.5000000000
0.2692307692 0.8076923077 0.5769230769
0.2692307692 0.8076923077 0.6538461538
0.2692307692 0.8076923077 0.7307692308
0.2692307692 0.8076923077 0.8076923077
0.2692307692 0.8076923077 0.8846153846
0.2692307692 0.8076923077 0.9615384615
0.2692307692 0.8846153846 0.0384615385
0.2692307692 0.8846153846 0.1153846154
0.2692307692 0.8846153846 0.1923076923
0.2692307692 0.8846153846 0.2692307692
0.2692307692 0.8846153846 0.3461538462
0.2692307692 0.8846153846 0.4230769231
0.2692307692 0.8846153846 0.5000000000
0.2692307692 0.8846153846 0.5769230769
0.2692307692 0.8846153846 0.6538461538
0.2692307692 0.8846153846 0.7307692308
0.2692307692 0.8846153846 0.8076923077
0.2692307692 0.8846153846 0.8846153846
0.2692307692 0.8846153846 0.9615384615
0.2692307692 0.9615384615 0.0384615385
0.2692307692 0.9615384615 0.1153846154
0.2692307692 0.9615384615 0.1923076923
0.2692307692 0.9615384615 0.2692307692
0.2692307692 0.9615384615 0.3461538462
0.2692307692 0.9615384615 0.4230769231
0.2692307692 0.9615384615 0.5000000000
0.2692307692 0.9615384615 0.5769230769
0.2692307692 0.9615384615 0.6538461538
0.2692307692 0.9615384615 0.7307692308
0.2692307692 0.9615384615 0.8076923077
0.2692307692 0.9615384615 0.8846153846
0.2692307692 0.9615384615 0.9615384615
0.3461538462 0.0384615385 0.0384615385
0.3461538462 0.0384615385 0.1153846154
0.3461538462 0.0384615385 0.1923076923
0.3461538462 0.0384615385 0.2692307692
0.3461538462 0.0384615385 0.3461538462
0.3461538462 0.0384615385 0.4230769231
0.3461538462 0.0384615385 0.5000000000
0.3461538462 0.0384615385 0.5769230769
0.3461538462 0.0384615385 0.6538461538
0.3461538462 0.0384615385 0.7307692308
0.3461538462 0.0384615385 0.8076923077
0.3461538462 0.0384615385 0.8846153846
0.3461538462 0.0384615385 0.9615384615
0.3461538462 0.1153846154 0.0384615385
0.3461538462 0.1153846154 0.1153846154
0.3461538462 0.1153846154 0.1923076923
0.3461538462 0.1153846154 0.2692307692
0.3461538462 0.1153846154 0.3461538462
0.3461538462 0.1153846154 0.4230769231
0.3461538462 0.1153846154 0.5000000000
0.3461538462 0.1153846154 0.5769230769
0.3461538462 0.1153846154 0.6538461538
0.3461538462 0.1153846154 0.7307692308
0.3461538462 0.1153846154 0.8076923077
0.3461538462 0.1153846154 0.8846153846
0.3461538462 0.1153846154 0.9615384615
0.3461538462 0.1923076923 0.0384615385
0.3461538462 0.1923076923 0.1153846154
0.3461538462 0.1923076923 0.1923076923
0.3461538462 0.1923076923 0.2692307692
0.3461538462 0.1923076923 0.3461538462
0.3461538462 0.1923076923 0.4230769231
0.3461538462 0.1923076923 0.5000000000
0.3461538462 0.1923076923 0.5769230769
0.3461538462 0.1923076923 0.6538461538
0.3461538462 0.1923076923 0.7307692308
0.3461538462 0.1923076923 0.8076923077
0.3461538462 0.1923076923 0.8846153846
0.3461538462 0.1923076923 0.9615384615
0.3461538462 0.2692307692 0.0384615385
0.3461538462 0.2692307692 0.1153846154
0.3461538462 0.2692307692 0.1923076923
0.3461538462 0.2692307692 0.2692307692
0.3461538462 0.2692307692 0.3461538462
0.3461538462 0.2692307692 0.4230769231
0.3461538462 0.2692307692 0.5000000000
0.3461538462 0.2692307692 0.5769230769
0.3461538462 0.2692307692 0.6538461538
0.3461538462 0.2692307692 0.7307692308
0.3461538462 0.2692307692 0.8076923077
0.3461538462 0.2692307692 0.8846153846
0.3461538462 0.2692307692 0.9615384615
0.3461538462 0.3461538462 0.0384615385
0.3461538462 0.3461538462 0.1153846154
0.3461538462 0.3461538462 0.1923076923
0.3461538462 0.3461538462 0.2692307692
0.3461538462 0.3461538462 0.3461538462
0.3461538462 0.3461538462 0.4230769231
0.3461538462 0.3461538462 0.5000000000
0.3461538462 0.3461538462 0.5769230769
0.3461538462 0.3461538462 0.6538461538
0.3461538462 0.3461538462 0.7307692308
0.3461538462 0.3461538462 0.8076923077
0.3461538462 0.3461538462 0.8846153846
0.3461538462 0.3461538462 0.9615384615
0.3461538462 0.4230769231 0.0384615385
0.3461538462 0.4230769231 0.1153846154
0.3461538462 0.4230769231 0.1923076923
0.3461538462 0.4230769231 0.2692307692
0.3461538462 0.4230769231 0.3461538462
0.3461538462 0.4230769231 0.4230769231
0.3461538462 0.4230769231 0.5000000000
0.3461538462 0.4230769231 0.5769230769
0.3461538462 0.4230769231 0.6538461538
0.3461538462 0.4230769231 0.7307692308
0.3461538462 0.4230769231 0.8076923077
0.3461538462 0.4230769231 0.8846153846
0.3461538462 0.4230769231 0.9615384615
0.3461538462 0.5000000000 0.0384615385
0.3461538462 0.5000000000 0.1153846154
0.3461538462 0.5000000000 0.1923076923
0.3461538462 0.5000000000 0.2692307692
0.3461538462 0.5000000000 0.3461538462
0.3461538462 0.5000000000 0.4230769231
0.3461538462 0.5000000000 0.5000000000
0.3461538462 0.5000000000 0.5769230769
0.3461538462 0.5000000000 0.6538461538
0.3461538462 0.5000000000 0.7307692308
0.3461538462 0.5000000000 0.8076923077
0.3461538462 0.5000000000 0.8846153846
0.3461538462 0.5000000000 0.9615384615
0.3461538462 0.5769230769 0.0384615385
0.3461538462 0.5769230769 0.1153846154
0.3461538462 0.5769230769 0.1923076923
0.3461538462 0.5769230769 0.2692307692
0.3461538462 0.5769230769 0.3461538462
0.3461538462 0.5769230769 0.4230769231
0.3461538462 0.5769230769 0.5000000000
0.3461538462 0.5769230769 0.5769230769
0.3461538462 0.5769230769 0.6538461538
0.3461538462 0.5769230769 0.7307692308
0.3461538462 0.5769230769 0.8076923077
0.3461538462 0.5769230769 0.8846153846
0.3461538462 0.5769230769 0.9615384615
0.3461538462 0.6538461538 0.0384615385
0.3461538462 0.6538461538 0.1153846154
0.3461538462 0.6538461538 0.1923076923
0.3461538462 0.6538461538 0.2692307692
0.3461538462 0.6538461538 0.3461538462
0.3461538462 0.6538461538 0.4230769231
0.3461538462 0.6538461538 0.5000000000
0.3461538462 0.6538461538 0.5769230769
0.3461538462 0.6538461538 0.6538461538
0.3461538462 0.6538461538 0.7307692308
0.3461538462 0.6538461538 0.8076923077
0.3461538462 0.6538461538 0.8846153846
0.3461538462 0.6538461538 0.9615384615
0.3461538462 0.7307692308 0.0384615385
0.3461538462 0.7307692308 0.1153846154
0.3461538462 0.7307692308 0.1923076923
0.3461538462 0.7307692308 0.2692307692
0.3461538462 0.7307692308 0.3461538462
0.3461538462 0.7307692308 0.4230769231
0.3461538462 0.7307692308 0.5000000000
0.3461538462 0.7307692308 0.5769230769
0.3461538462 0.7307692308 0.6538461538
0.3461538462 0.7307692308 0.7307692308
0.3461538462 0.7307692308 0.8076923077
0.3461538462 0.7307692308 0.8846153846
0.3461538462 0.7307692308 0.9615384615
0.3461538462 0.8076923077 0.0384615385
0.3461538462 0.8076923077 0.1153846154
0.3461538462 0.8076923077 0.1923076923
0.3461538462 0.8076923077 0.2692307692
0.3461538462 0.8076923077 0.3461538462
0.3461538462 0.8076923077 0.4230769231
0.3461538462 0.8076923077 0.5000000000
0.3461538462 0.8076923077 0.5769230769
0.3461538462 0.8076923077 0.6538461538
0.3461538462 0.8076923077 0.7307692308
0.3461538462 0.8076923077 0.8076923077
0.3461538462 0.8076923077 0.8846153846
0.3461538462 0.8076923077 0.9615384615
0.3461538462 0.8846153846 0.0384615385
0.3461538462 0.8846153846 0.1153846154
0.3461538462 0.8846153846 0.1923076923
0.3461538462 0.8846153846 0.2692307692
0.3461538462 0.8846153846 0.3461538462
0.3461538462 0.8846153846 0.4230769231
0.3461538462 0.8846153846 0.5000000000
0.3461538462 0.8846153846 0.5769230769
0.3461538462 0.8846153846 0.6538461538
0.3461538462 0.8846153846 0.7307692308
0.3461538462 0.8846153846 0.8076923077
0.3461538462 0.8846153846 0.8846153846
0.3461538462 0.8846153846 0.9615384615
0.3461538462 0.9615384615 0.0384615385
0.3461538462 0.9615384615 0.1153846154
0.3461538462 0.9615384615 0.1923076923
0.3461538462 0.9615384615 0.2692307692
0.3461538462 0.9615384615 0.3461538462
0.3461538462 0.9615384615 0.4230769231
0.3461538462 0.9615384615 0.5000000000
0.3461538462 0.9615384615 0.5769230769
0.3461538462 0.9615384615 0.6538461538
0.3461538462 0.9615384615 0.7307692308
0.3461538462 0.9615384615 0.8076923077
0.3461538462 0.9615384615 0.8846153846
0.3461538462 0.9615384615 0.9615384615
0.4230769231 0.0384615385 0.0384615385
0.4230769231 0.0384615385 0.1153846154
0.4230769231 0.0384615385 0.1923076923
0.4230769231 0.0384615385 0.2692307692
0.4230769231 0.0384615385 0.3461538462
0.4230769231 0.0384615385 0.4230769231
0.4230769231 0.0384615385 0.5000000000
0.4230769231 0.0384615385 0.5769230769
0.4230769231 0.0384615385 0.6538461538
0.4230769231 0.0384615385 0.7307692308
0.4230769231 0.0384615385 0.8076923077
0.4230769231 0.0384615385 0.8846153846
0.4230769231 0.0384615385 0.9615384615
0.4230769231 0.1153846154 0.0384615385
0.4230769231 0.1153846154 0.1153846154
0.4230769231 0.1153846154 0.1923076923
0.4230769231 0.1153846154 0.2692307692
0.4230769231 0.1153846154 0.3461538462
0.4230769231 0.1153846154 0.4230769231
0.4230769231 0.1153846154 0.5000000000
0.4230769231 0.1153846154 0.5769230769
0.4230769231 0.1153846154 0.6538461538
0.4230769231 0.1153846154 0.7307692308
0.4230769231 0.1153846154 0.8076923077
0.4230769231 0.1153846154 0.8846153846
0.4230769231 0.1153846154 0.9615384615
0.4230769231 0.1923076923 0.0384615385
0.4230769231 0.1923076923 0.1153846154
0.4230769231 0.1923076923 0.1923076923
0.4230769231 0.1923076923 0.2692307692
0.4230769231 0.1923076923 0.3461538462
0.4230769231 0.1923076923 0.4230769231
0.4230769231 0.1923076923 0.5000000000
0.4230769231 0.1923076923 0.5769230769
0.4230769231 0.1923076923 0.6538461538
0.4230769231 0.1923076923 0.7307692308
0.4230769231 0.1923076923 0.8076923077
0.4230769231 0.1923076923 0.8846153846
0.4230769231 0.1923076923 0.9615384615
0.4230769231 0.2692307692 0.0384615385
0.4230769231 0.2692307692 0.1153846154
0.4230769231 0.2692307692 0.1923076923
0.4230769231 0.2692307692 0.2692307692
0.4230769231 0.2692307692 0.3461538462
0.4230769231 0.2692307692 0.4230769231
0.4230769231 0.2692307692 0.5000000000
0.4230769231 0.2692307692 0.5769230769
0.4230769231 0.2692307692 0.6538461538
0.4230769231 0.2692307692 0.7307692308
0.4230769231 0.2692307692 0.8076923077
0.4230769231 0.2692307692 0.8846153846
0.4230769231 0.2692307692 0.9615384615
0.4230769231 0.3461538462 0.0384615385
0.4230769231 0.3461538462 0.1153846154
0.4230769231 0.3461538462 0.1923076923
0.4230769231 0.3461538462 0.2692307692
0.4230769231 0.3461538462 0.3461538462
0.4230769231 0.3461538462 0.4230769231
0.4230769231 0.3461538462 0.5000000000
0.4230769231 0.3461538462 0.5769230769
0.4230769231 0.3461538462 0.6538461538
0.4230769231 0.3461538462 0.7307692308
0.4230769231 0.3461538462 0.8076923077
0.4230769231 0.3461538462 0.8846153846
0.4230769231 0.3461538462 0.9615384615
0.4230769231 0.4230769231 0.0384615385
0.4230769231 0.4230769231 0.1153846154
0.4230769231 0.4230769231 0.1923076923
0.4230769231 0.4230769231 0.2692307692
0.4230769231 0.4230769231 0.3461538462
0.4230769231 0.4230769231 0.4230769231
0.4230769231 0.4230769231 0.5000000000
0.4230769231 0.4230769231 0.5769230769
0.4230769231 0.4230769231 0.6538461538
0.4230769231 0.4230769231 0.7307692308
0.4230769231 0.4230769231 0.8076923077
0.4230769231 0.4230769231 0.8846153846
0.4230769231 0.4230769231 0.9615384615
0.4230769231 0.5000000000 0.0384615385
0.4230769231 0.5000000000 0.1153846154
0.4230769231 0.5000000000 0.1923076923
0.4230769231 0.5000000000 0.2692307692
0.4230769231 0.5000000000 0.3461538462
0.4230769231 0.5000000000 0.4230769231
0.4230769231 0.5000000000 0.5000000000
0.4230769231 0.5000000000 0.5769230769
0.4230769231 0.5000000000 0.6538461538
0.4230769231 0.5000000000 0.7307692308
0.4230769231 0.5000000000 0.8076923077
0.4230769231 0.5000000000 0.8846153846
0.4230769231 0.5000000000 0.9615384615
0.4230769231 0.5769230769 0.0384615385
0.4230769231 0.5769230769 0.1153846154
0.4230769231 0.5769230769 0.1923076923
0.4230769231 0.5769230769 0.2692307692
0.4230769231 0.5769230769 0.3461538462
0.4230769231 0.5769230769 0.4230769231
0.4230769231 0.5769230769 0.5000000000
0.4230769231 0.5769230769 0.5769230769
0.4230769231 0.5769230769 0.6538461538
0.4230769231 0.5769230769 0.7307692308
0.4230769231 0.5769230769 0.8076923077
0.4230769231 0.5769230769 0.8846153846
0.4230769231 0.5769230769 0.9615384615
0.4230769231 0.6538461538 0.0384615385
0.4230769231 0.6538461538 0.1153846154
0.4230769231 0.6538461538 0.1923076923
0.4230769231 0.6538461538 0.2692307692
0.4230769231 0.6538461538 0.3461538462
0.4230769231 0.6538461538 0.4230769231
0.4230769231 0.6538461538 0.5000000000
0.4230769231 0.6538461538 0.5769230769
0.4230769231 0.6538461538 0.6538461538
0.4230769231 0.6538461538 0.7307692308
0.4230769231 0.6538461538 0.8076923077
0.4230769231 0.6538461538 0.8846153846
0.4230769231 0.6538461538 0.9615384615
0.4230769231 0.7307692308 0.0384615385
0.4230769231 0.7307692308 0.1153846154
0.4230769231 0.7307692308 0.1923076923
0.4230769231 0.7307692308 0.2692307692
0.4230769231 0.7307692308 0.3461538462
0.4230769231 0.7307692308 0.4230769231
0.4230769231 0.7307692308 0.5000000000
0.4230769231 0.7307692308 0.5769230769
0.4230769231 0.7307692308 0.6538461538
0.4230769231 0.7307692308 0.7307692308
0.4230769231 0.7307692308 0.8076923077
0.4230769231 0.7307692308 0.8846153846
0.4230769231 0.7307692308 0.9615384615
0.4230769231 0.8076923077 0.0384615385
0.4230769231 0.8076923077 0.1153846154
0.4230769231 0.8076923077 0.1923076923
0.4230769231 0.8076923077 0.2692307692
0.4230769231 0.8076923077 0.3461538462
0.4230769231 0.8076923077 0.4230769231
0.4230769231 0.8076923077 0.5000000000
0.4230769231 0.8076923077 0.5769230769
0.4230769231 0.8076923077 0.6538461538
0.4230769231 0.8076923077 0.7307692308
0.4230769231 0.8076923077 0.8076923077
0.4230769231 0.8076923077 0.8846153846
0.4230769231 0.8076923077 0.9615384615
0.4230769231 0.8846153846 0.0384615385
0.4230769231 0.8846153846 0.1153846154
0.4230769231 0.8846153846 0.1923076923
0.4230769231 0.8846153846 0.2692307692
0.4230769231 0.8846153846 0.3461538462
0.4230769231 0.8846153846 0.4230769231
0.4230769231 0.8846153846 0.5000000000
0.4230769231 0.8846153846 0.5769230769
0.4230769231 0.8846153846 0.6538461538
0.4230769231 0.8846153846 0.7307692308
0.4230769231 0.8846153846 0.8076923077
0.4230769231 0.8846153846 0.8846153846
0.4230769231 0.8846153846 0.9615384615
0.4230769231 0.9615384615 0.0384615385
0.4230769231 0.9615384615 0.1153846154
0.4230769231 0.9615384615 0.1923076923
0.4230769231 0.9615384615 0.2692307692
0.4230769231 0.9615384615 0.3461538462
0.4230769231 0.9615384615 0.4230769231
0.4230769231 0.9615384615 0.5000000000
0.4230769231 0.9615384615 0.5769230769
0.4230769231 0.9615384615 0.6538461538
0.4230769231 0.9615384615 0.7307692308
0.4230769231 0.9615384615 0.8076923077
0.4230769231 0.9615384615 0.8846153846
0.4230769231 0.9615384615 0.9615384615
0.5000000000 0.0384615385 0.0384615385
0.5000000000 0.0384615385 0.1153846154
0.5000000000 0.0384615385 0.1923076923
0.5000000000 0.0384615385 0.2692307692
0.5000000000 0.0384615385 0.3461538462
0.5000000000 0.0384615385 0.4230769231
0.5000000000 0.0384615385 0.5000000000
0.5000000000 0.0384615385 0.5769230769
0.5000000000 0.0384615385 0.6538461538
0.5000000000 0.0384615385 0.7307692308
0.5000000000 0.0384615385 0.8076923077
0.5000000000 0.0384615385 0.8846153846
0.5000000000 0.0384615385 0.9615384615
0.5000000000 0.1153846154 0.0384615385
0.5000000000 0.1153846154 0.1153846154
0.5000000000 0.1153846154 0.1923076923
0.5000000000 0.1153846154 0.2692307692
0.5000000000 0.1153846154 0.3461538462
0.5000000000 0.1153846154 0.4230769231
0.5000000000 0.1153846154 0.5000000000
0.5000000000 0.1153846154 0.5769230769
0.5000000000 0.1153846154 0.6538461538
0.5000000000 0.1153846154 0.7307692308
0.5000000000 0.1153846154 0.8076923077
0.5000000000 0.1153846154 0.8846153846
0.5000000000 0.1153846154 0.9615384615
0.5000000000 0.1923076923 0.0384615385
0.5000000000 0.1923076923 0.1153846154
0.5000000000 0.1923076923 0.1923076923
0.5000000000 0.1923076923 0.2692307692
0.5000000000 0.1923076923 0.3461538462
0.5000000000 0.1923076923 0.4230769231
0.5000000000 0.1923076923 0.5000000000
0.5000000000 0.1923076923 0.5769230769
0.5000000000 0.1923076923 0.6538461538
0.5000000000 0.1923076923 0.7307692308
0.5000000000 0.1923076923 0.8076923077
0.5000000000 0.1923076923 0.8846153846
0.5000000000 0.1923076923 0.9615384615
0.5000000000 0.2692307692 0.0384615385
0.5000000000 0.2692307692 0.1153846154
0.5000000000 0.2692307692 0.1923076923
0.5000000000 0.2692307692 0.2692307692
0.5000000000 0.2692307692 0.3461538462
0.5000000000 0.2692307692 0.4230769231
0.5000000000 0.2692307692 0.5000000000
0.5000000000 0.2692307692 0.5769230769
0.5000000000 0.2692307692 0.6538461538
0.5000000000 0.2692307692 0.7307692308
0.5000000000 0.2692307692 0.8076923077
0.5000000000 0.2692307692 0.8846153846
0.5000000000 0.2692307692 0.9615384615
0.5000000000 0.3461538462 0.0384615385
0.5000000000 0.3461538462 0.1153846154
0.5000000000 0.3461538462 0.1923076923
0.5000000000 0.3461538462 0.2692307692
0.5000000000 0.3461538462 0.3461538462
0.5000000000 0.3461538462 0.4230769231
0.5000000000 0.3461538462 0.5000000000
0.5000000000 0.3461538462 0.5769230769
0.5000000000 0.3461538462 0.6538461538
0.5000000000 0.3461538462 0.7307692308
0.5000000000 0.3461538462 0.8076923077
0.5000000000 0.3461538462 0.8846153846
0.5000000000 0.3461538462 0.9615384615
0.5000000000 0.4230769231 0.0384615385
0.5000000000 0.4230769231 0.1153846154
0.5000000000 0.4230769231 0.1923076923
0.5000000000 0.4230769231 0.2692307692
0.5000000000 0.4230769231 0.3461538462
0.5000000000 0.4230769231 0.4230769231
0.5000000000 0.4230769231 0.5000000000
0.5000000000 0.4230769231 0.5769230769
0.5000000000 0.4230769231 0.6538461538
0.5000000000 0.4230769231 0.7307692308
0.5000000000 0.4230769231 0.8076923077
0.5000000000 0.4230769231 0.8846153846
0.5000000000 0.4230769231 0.9615384615
0.5000000000 0.5000000000 0.0384615385
0.5000000000 0.5000000000 0.1153846154
0.5000000000 0.5000000000 0.1923076923
0.5000000000 0.5000000000 0.2692307692
0.5000000000 0.5000000000 0.3461538462
0.5000000000 0.5000000000 0.4230769231
0.5000000000 0.5000000000 0.5000000000
0.5000000000 0.5000000000 0.5769230769
0.5000000000 0.5000000000 0.6538461538
0.5000000000 0.5000000000 0.7307692308
0.5000000000 0.5000000000 0.8076923077
0.5000000000 0.5000000000 0.8846153846
0.5000000000 0.5000000000 0.9615384615
0.5000000000 0.5769230769 0.0384615385
0.5000000000 0.5769230769 0.1153846154
0.5000000000 0.5769230769 0.1923076923
0.5000000000 0.5769230769 0.2692307692
0.5000000000 0.5769230769 0.3461538462
0.5000000000 0.5769230769 0.4230769231
0.5000000000 0.5769230769 0.5000000000
0.5000000000 0.5769230769 0.5769230769
0.5000000000 0.5769230769 0.6538461538
0.5000000000 0.5769230769 0.7307692308
0.5000000000 0.5769230769 0.8076923077
0.5000000000 0.5769230769 0.8846153846
0.5000000000 0.5769230769 0.9615384615
0.5000000000 0.6538461538 0.0384615385
0.5000000000 0.6538461538 0.1153846154
0.5000000000 0.6538461538 0.1923076923
0.5000000000 0.6538461538 0.2692307692
0.5000000000 0.6538461538 0.3461538462
0.5000000000 0.6538461538 0.4230769231
0.5000000000 0.6538461538 0.5000000000
0.5000000000 0.6538461538 0.5769230769
0.5000000000 0.6538461538 0.6538461538
0.5000000000 0.6538461538 0.7307692308
0.5000000000 0.6538461538 0.8076923077
0.5000000000 0.6538461538 0.8846153846
0.5000000000 0.6538461538 0.9615384615
0.5000000000 0.7307692308 0.0384615385
0.5000000000 0.7307692308 0.1153846154
0.5000000000 0.7307692308 0.1923076923
0.5000000000 0.7307692308 0.2692307692
0.5000000000 0.7307692308 0.3461538462
0.5000000000 0.7307692308 0.4230769231
0.5000000000 0.7307692308 0.5000000000
0.5000000000 0.7307692308 0.5769230769
0.5000000000 0.7307692308 0.6538461538
0.5000000000 0.7307692308 0.7307692308
0.5000000000 0.7307692308 0.8076923077
0.5000000000 0.7307692308 0.8846153846
0.5000000000 0.7307692308 0.9615384615
0.5000000000 0.8076923077 0.0384615385
0.5000000000 0.8076923077 0.1153846154
0.5000000000 0.8076923077 0.1923076923
0.5000000000 0.8076923077 0.2692307692
0.5000000000 0.8076923077 0.3461538462
0.5000000000 0.8076923077 0.4230769231
0.5000000000 0.8076923077 0.5000000000
0.5000000000 0.8076923077 0.5769230769
0.5000000000 0.8076923077 0.6538461538
0.5000000000 0.8076923077 0.7307692308
0.5000000000 0.8076923077 0.8076923077
0.5000000000 0.8076923077 0.8846153846
0.5000000000 0.8076923077 0.9615384615
0.5000000000 0.8846153846 0.0384615385
0.5000000000 0.8846153846 0.1153846154
0.5000000000 0.8846153846 0.1923076923
0.5000000000 0.8846153846 0.2692307692
0.5000000000 0.8846153846 0.3461538462
0.5000000000 0.8846153846 0.4230769231
0.5000000000 0.8846153846 0.5000000000
0.5000000000 0.8846153846 0.5769230769
0.5000000000 0.8846153846 0.6538461538
0.5000000000 0.8846153846 0.7307692308
0.5000000000 0.8846153846 0.8076923077
0.5000000000 0.8846153846 0.8846153846
0.5000000000 0.8846153846 0.9615384615
0.5000000000 0.9615384615 0.0384615385
0.5000000000 0.9615384615 0.1153846154
0.5000000000 0.9615384615 0.1923076923
0.5000000000 0.9615384615 0.2692307692
0.5000000000 0.9615384615 0.3461538462
0.5000000000 0.9615384615 0.4230769231
0.5000000000 0.9615384615 0.5000000000
0.5000000000 0.9615384615 0.5769230769
0.5000000000 0.9615384615 0.6538461538
0.5000000000 0.9615384615 0.7307692308
0.5000000000 0.9615384615 0.8076923077
0.5000000000 0.9615384615 0.8846153846
0.5000000000 0.9615384615 0.9615384615
0.5769230769 0.0384615385 0.0384615385
0.5769230769 0.0384615385 0.1153846154
0.5769230769 0.0384615385 0.1923076923
0.5769230769 0.0384615385 0.2692307692
0.5769230769 0.0384615385 0.3461538462
0.5769230769 0.0384615385 0.4230769231
0.5769230769 0.0384615385 0.5000000000
0.5769230769 0.0384615385 0.5769230769
0.5769230769 0.0384615385 0.6538461538
0.5769230769 0.0384615385 0.7307692308
0.5769230769 0.0384615385 0.8076923077
0.5769230769 0.0384615385 0.8846153846
0.5769230769 0.0384615385 0.9615384615
0.5769230769 0.1153846154 0.0384615385
0.5769230769 0.1153846154 0.1153846154
0.5769230769 0.1153846154 0.1923076923
0.5769230769 0.1153846154 0.2692307692
0.5769230769 0.1153846154 0.3461538462
0.5769230769 0.1153846154 0.4230769231
0.5769230769 0.1153846154 0.5000000000
0.5769230769 0.1153846154 0.5769230769
0.5769230769 0.1153846154 0.6538461538
0.5769230769 0.1153846154 0.7307692308
0.5769230769 0.1153846154 0.8076923077
0.5769230769 0.1153846154 0.8846153846
0.5769230769 0.1153846154 0.9615384615
0.5769230769 0.1923076923 0.0384615385
0.5769230769 0.1923076923 0.1153846154
0.5769230769 0.1923076923 0.1923076923
0.5769230769 0.1923076923 0.2692307692
0.5769230769 0.1923076923 0.3461538462
0.5769230769 0.1923076923 0.4230769231
0.5769230769 0.1923076923 0.5000000000
0.5769230769 0.1923076923 0.5769230769
0.5769230769 0.1923076923 0.6538461538
0.5769230769 0.1923076923 0.7307692308
0.5769230769 0.1923076923 0.8076923077
0.5769230769 0.1923076923 0.8846153846
0.5769230769 0.1923076923 0.9615384615
0.5769230769 0.2692307692 0.0384615385
0.5769230769 0.2692307692 0.1153846154
0.5769230769 0.2692307692 0.1923076923
0.5769230769 0.2692307692 0.2692307692
0.5769230769 0.2692307692 0.3461538462
0.5769230769 0.2692307692 0.4230769231
0.5769230769 0.2692307692 0.5000000000
0.5769230769 0.2692307692 0.5769230769
0.5769230769 0.2692307692 0.6538461538
0.5769230769 0.2692307692 0.7307692308
0.5769230769 0.2692307692 0.8076923077
0.5769230769 0.2692307692 0.8846153846
0.5769230769 0.2692307692 0.9615384615
0.5769230769 0.3461538462 0.0384615385
0.5769230769 0.3461538462 0.1153846154
0.5769230769 0.3461538462 0.1923076923
0.5769230769 0.3461538462 0.2692307692
0.5769230769 0.3461538462 0.3461538462
0.5769230769 0.3461538462 0.4230769231
0.5769230769 0.3461538462 0.5000000000
0.5769230769 0.3461538462 0.5769230769
0.5769230769 0.3461538462 0.6538461538
0.5769230769 0.3461538462 0.7307692308
0.5769230769 0.3461538462 0.8076923077
0.5769230769 0.3461538462 0.8846153846
0.5769230769 0.3461538462 0.9615384615
0.5769230769 0.4230769231 0.0384615385
0.5769230769 0.4230769231 0.1153846154
0.5769230769 0.4230769231 0.1923076923
0.5769230769 0.4230769231 0.2692307692
0.5769230769 0.4230769231 0.3461538462
0.5769230769 0.4230769231 0.4230769231
0.5769230769 0.4230769231 0.5000000000
0.5769230769 0.4230769231 0.5769230769
0.5769230769 0.4230769231 0.6538461538
0.5769230769 0.4230769231 0.7307692308
0.5769230769 0.4230769231 0.8076923077
0.5769230769 0.4230769231 0.8846153846
0.5769230769 0.4230769231 0.9615384615
0.5769230769 0.5000000000 0.0384615385
0.5769230769 0.5000000000 0.1153846154
0.5769230769 0.5000000000 0.1923076923
0.5769230769 0.5000000000 0.2692307692
0.5769230769 0.5000000000 0.3461538462
0.5769230769 0.5000000000 0.4230769231
0.5769230769 0.5000000000 0.5000000000
0.5769230769 0.5000000000 0.5769230769
0.5769230769 0.5000000000 0.6538461538
0.5769230769 0.5000000000 0.7307692308
0.5769230769 0.5000000000 0.8076923077
0.5769230769 0.5000000000 0.8846153846
0.5769230769 0.5000000000 0.9615384615
0.5769230769 0.5769230769 0.0384615385
0.5769230769 0.5769230769 0.1153846154
0.5769230769 0.5769230769 0.1923076923
0.5769230769 0.5769230769 0.2692307692
0.5769230769 0.5769230769 0.3461538462
0.5769230769 0.5769230769 0.4230769231
0.5769230769 0.5769230769 0.5000000000
0.5769230769 0.5769230769 0.5769230769
0.5769230769 0.5769230769 0.6538461538
0.5769230769 0.5769230769 0.7307692308
0.5769230769 0.5769230769 0.8076923077
0.5769230769 0.5769230769 0.8846153846
0.5769230769 0.5769230769 0.9615384615
0.5769230769 0.6538461538 0.0384615385
0.5769230769 0.6538461538 0.1153846154
0.5769230769 0.6538461538 0.1923076923
0.5769230769 0.6538461538 0.2692307692
0.5769230769 0.6538461538 0.3461538462
0.5769230769 0.6538461538 0.4230769231
0.5769230769 0.6538461538 0.5000000000
0.5769230769 0.6538461538 0.5769230769
0.5769230769 0.6538461538 0.6538461538
0.5769230769 0.6538461538 0.7307692308
0.5769230769 0.6538461538 0.8076923077
0.5769230769 0.6538461538 0.8846153846
0.5769230769 0.6538461538 0.9615384615
0.5769230769 0.7307692308 0.0384615385
0.5769230769 0.7307692308 0.1153846154
0.5769230769 0.7307692308 0.1923076923
0.5769230769 0.7307692308 0.2692307692
0.5769230769 0.7307692308 0.3461538462
0.5769230769 0.7307692308 0.4230769231
0.5769230769 0.7307692308 0.5000000000
0.5769230769 0.7307692308 0.5769230769
0.5769230769 0.7307692308 0.6538461538
0.5769230769 0.7307692308 0.7307692308
0.5769230769 0.7307692308 0.8076923077
0.5769230769 0.7307692308 0.8846153846
0.5769230769 0.7307692308 0.9615384615
0.5769230769 0.8076923077 0.0384615385
0.5769230769 0.8076923077 0.1153846154
0.5769230769 0.8076923077 0.1923076923
0.5769230769 0.8076923077 0.2692307692
0.5769230769 0.8076923077 0.3461538462
0.5769230769 0.8076923077 0.4230769231
0.5769230769 0.8076923077 0.5000000000
0.5769230769 0.8076923077 0.5769230769
0.5769230769 0.8076923077 0.6538461538
0.5769230769 0.8076923077 0.7307692308
0.5769230769 0.8076923077 0.8076923077
0.5769230769 0.8076923077 0.8846153846
0.5769230769 0.8076923077 0.9615384615
0.5769230769 0.8846153846 0.0384615385
0.5769230769 0.8846153846 0.1153846154
0.5769230769 0.8846153846 0.1923076923
0.5769230769 0.8846153846 0.2692307692
0.5769230769 0.8846153846 0.3461538462
0.5769230769 0.8846153846 0.4230769231
0.5769230769 0.8846153846 0.5000000000
0.5769230769 0.8846153846 0.5769230769
0.5769230769 0.8846153846 0.6538461538
0.5769230769 0.8846153846 0.7307692308
0.5769230769 0.8846153846 0.8076923077
0.5769230769 0.8846153846 0.8846153846
0.5769230769 0.8846153846 0.9615384615
0.5769230769 0.9615384615 0.0384615385
0.5769230769 0.9615384615 0.1153846154
0.5769230769 0.9615384615 0.1923076923
0.5769230769 0.9615384615 0.2692307692
0.5769230769 0.9615384615 0.3461538462
0.5769230769 0.9615384615 0.4230769231
0.5769230769 0.9615384615 0.5000000000
0.5769230769 0.9615384615 0.5769230769
0.5769230769 0.9615384615 0.6538461538
0.5769230769 0.9615384615 0.7307692308
0.5769230769 0.9615384615 0.8076923077
0.5769230769 0.9615384615 0.8846153846
0.5769230769 0.9615384615 0.9615384615
0.6538461538 0.0384615385 0.0384615385
0.6538461538 0.0384615385 0.1153846154
0.6538461538 0.0384615385 0.1923076923
0.6538461538 0.0384615385 0.2692307692
0.6538461538 0.0384615385 0.3461538462
0.6538461538 0.0384615385 0.4230769231
0.6538461538 0.0384615385 0.5000000000
0.6538461538 0.0384615385 0.5769230769
0.6538461538 0.0384615385 0.6538461538
0.6538461538 0.0384615385 0.7307692308
0.6538461538 0.0384615385 0.8076923077
0.6538461538 0.0384615385 0.8846153846
0.6538461538 0.0384615385 0.9615384615
0.6538461538 0.1153846154 0.0384615385
0.6538461538 0.1153846154 0.1153846154
0.6538461538 0.1153846154 0.1923076923
0.6538461538 0.1153846154 0.2692307692
0.6538461538 0.1153846154 0.3461538462
0.6538461538 0.1153846154 0.4230769231
0.6538461538 0.1153846154 0.5000000000
0.6538461538 0.1153846154 0.5769230769
0.6538461538 0.1153846154 0.6538461538
0.6538461538 0.1153846154 0.7307692308
0.6538461538 0.1153846154 0.8076923077
0.6538461538 0.1153846154 0.8846153846
0.6538461538 0.1153846154 0.9615384615
0.6538461538 0.1923076923 0.0384615385
0.6538461538 0.1923076923 0.1153846154
0.6538461538 0.1923076923 0.1923076923
0.6538461538 0.1923076923 0.2692307692
0.6538461538 0.1923076923 0.3461538462
0.6538461538 0.1923076923 0.4230769231
0.6538461538 0.1923076923 0.5000000000
0.6538461538 0.1923076923 0.5769230769
0.6538461538 0.1923076923 0.6538461538
0.6538461538 0.1923076923 0.7307692308
0.6538461538 0.1923076923 0.8076923077
0.6538461538 0.1923076923 0.8846153846
0.6538461538 0.1923076923 0.9615384615
0.6538461538 0.2692307692 0.0384615385
0.6538461538 0.2692307692 0.1153846154
0.6538461538 0.2692307692 0.1923076923
0.6538461538 0.2692307692 0.2692307692
0.6538461538 0.2692307692 0.3461538462
0.6538461538 0.2692307692 0.4230769231
0.6538461538 0.2692307692 0.5000000000
0.6538461538 0.2692307692 0.5769230769
0.6538461538 0.2692307692 0.6538461538
0.6538461538 0.2692307692 0.7307692308
0.6538461538 0.2692307692 0.8076923077
0.6538461538 0.2692307692 0.8846153846
0.6538461538 0.2692307692 0.9615384615
0.6538461538 0.3461538462 0.0384615385
0.6538461538 0.3461538462 0.1153846154
0.6538461538 0.3461538462 0.1923076923
0.6538461538 0.3461538462 0.2692307692
0.6538461538 0.3461538462 0.3461538462
0.6538461538 0.3461538462 0.4230769231
0.6538461538 0.3461538462 0.5000000000
0.6538461538 0.3461538462 0.5769230769
0.6538461538 0.3461538462 0.6538461538
0.6538461538 0.3461538462 0.7307692308
0.6538461538 0.3461538462 0.8076923077
0.6538461538 0.3461538462 0.8846153846
0.6538461538 0.3461538462 0.9615384615
0.6538461538 0.4230769231 0.0384615385
0.6538461538 0.4230769231 0.1153846154
0.6538461538 0.4230769231 0.1923076923
0.6538461538 0.4230769231 0.2692307692
0.6538461538 0.4230769231 0.3461538462
0.6538461538 0.4230769231 0.4230769231
0.6538461538 0.4230769231 0.5000000000
0.6538461538 0.4230769231 0.5769230769
0.6538461538 0.4230769231 0.6538461538
0.6538461538 0.4230769231 0.7307692308
0.6538461538 0.4230769231 0.8076923077
0.6538461538 0.4230769231 0.8846153846
0.6538461538 0.4230769231 0.9615384615
0.6538461538 0.5000000000 0.0384615385
0.6538461538 0.5000000000 0.1153846154
0.6538461538 0.5000000000 0.1923076923
0.6538461538 0.5000000000 0.2692307692
0.6538461538 0.5000000000 0.3461538462
0.6538461538 0.5000000000 0.4230769231
0.6538461538 0.5000000000 0.5000000000
0.6538461538 0.5000000000 0.5769230769
0.6538461538 0.5000000000 0.6538461538
0.6538461538 0.5000000000 0.7307692308
0.6538461538 0.5000000000 0.8076923077
0.6538461538 0.5000000000 0.8846153846
0.6538461538 0.5000000000 0.9615384615
0.6538461538 0.5769230769 0.0384615385
0.6538461538 0.5769230769 0.1153846154
0.6538461538 0.5769230769 0.1923076923
0.6538461538 0.5769230769 0.2692307692
0.6538461538 0.5769230769 0.3461538462
0.6538461538 0.5769230769 0.4230769231
0.6538461538 0.5769230769 0.5000000000
0.6538461538 0.5769230769 0.5769230769
0.6538461538 0.5769230769 0.6538461538
0.6538461538 0.5769230769 0.7307692308
0.6538461538 0.5769230769 0.8076923077
0.6538461538 0.5769230769 0.8846153846
0.6538461538 0.5769230769 0.9615384615
0.6538461538 0.6538461538 0.0384615385
0.6538461538 0.6538461538 0.1153846154
0.6538461538 0.6538461538 0.1923076923
0.6538461538 0.6538461538 0.2692307692
0.6538461538 0.6538461538 0.3461538462
0.6538461538 0.6538461538 0.4230769231
0.6538461538 0.6538461538 0.5000000000
0.6538461538 0.6538461538 0.5769230769
0.6538461538 0.6538461538 0.6538461538
0.6538461538 0.6538461538 0.7307692308
0.6538461538 0.6538461538 0.8076923077
0.6538461538 0.6538461538 0.8846153846
0.6538461538 0.6538461538 0.9615384615
0.6538461538 0.7307692308 0.0384615385
0.6538461538 0.7307692308 0.1153846154
0.6538461538 0.7307692308 0.1923076923
0.6538461538 0.7307692308 0.2692307692
0.6538461538 0.7307692308 0.3461538462
0.6538461538 0.7307692308 0.4230769231
0.6538461538 0.7307692308 0.5000000000
0.6538461538 0.7307692308 0.5769230769
0.6538461538 0.7307692308 0.6538461538
0.6538461538 0.7307692308 0.7307692308
0.6538461538 0.7307692308 0.8076923077
0.6538461538 0.7307692308 0.8846153846
0.6538461538 0.7307692308 0.9615384615
0.6538461538 0.8076923077 0.0384615385
0.6538461538 0.8076923077 0.1153846154
0.6538461538 0.8076923077 0.1923076923
0.6538461538 0.8076923077 0.2692307692
0.6538461538 0.8076923077 0.3461538462
0.6538461538 0.8076923077 0.4230769231
0.6538461538 0.8076923077 0.5000000000
0.6538461538 0.8076923077 0.5769230769
0.6538461538 0.8076923077 0.6538461538
0.6538461538 0.8076923077 0.7307692308
0.6538461538 0.8076923077 0.8076923077
0.6538461538 0.8076923077 0.8846153846
0.6538461538 0.8076923077 0.9615384615
0.6538461538 0.8846153846 0.0384615385
0.6538461538 0.8846153846 0.1153846154
0.6538461538 0.8846153846 0.1923076923
0.6538461538 0.8846153846 0.2692307692
0.6538461538 0.8846153846 0.3461538462
0.6538461538 0.8846153846 0.4230769231
0.6538461538 0.8846153846 0.5000000000
0.6538461538 0.8846153846 0.5769230769
0.6538461538 0.8846153846 0.6538461538
0.6538461538 0.8846153846 0.7307692308
0.6538461538 0.8846153846 0.8076923077
0.6538461538 0.8846153846 0.8846153846
0.6538461538 0.8846153846 0.9615384615
0.6538461538 0.9615384615 0.0384615385
0.6538461538 0.9615384615 0.1153846154
0.6538461538 0.9615384615 0.1923076923
0.6538461538 0.9615384615 0.2692307692
0.6538461538 0.9615384615 0.3461538462
0.6538461538 0.9615384615 0.4230769231
0.6538461538 0.9615384615 0.5000000000
0.6538461538 0.9615384615 0.5769230769
0.6538461538 0.9615384615 0.6538461538
0.6538461538 0.9615384615 0.7307692308
0.6538461538 0.9615384615 0.8076923077
0.6538461538 0.9615384615 0.8846153846
0.6538461538 0.9615384615 0.9615384615
0.7307692308 0.0384615385 0.0384615385
0.7307692308 0.0384615385 0.1153846154
0.7307692308 0.0384615385 0.1923076923
0.7307692308 0.0384615385 0.2692307692
0.7307692308 0.0384615385 0.3461538462
0.7307692308 0.0384615385 0.4230769231
0.7307692308 0.0384615385 0.5000000000
0.7307692308 0.0384615385 0.5769230769
0.7307692308 0.0384615385 0.6538461538
0.7307692308 0.0384615385 0.7307692308
0.7307692308 0.0384615385 0.8076923077
0.7307692308 0.0384615385 0.8846153846
0.7307692308 0.0384615385 0.9615384615
0.7307692308 0.1153846154 0.0384615385
0.7307692308 0.1153846154 0.1153846154
0.7307692308 0.1153846154 0.1923076923
0.7307692308 0.1153846154 0.2692307692
0.7307692308 0.1153846154 0.3461538462
0.7307692308 0.1153846154 0.4230769231
0.7307692308 0.1153846154 0.5000000000
0.7307692308 0.1153846154 0.5769230769
0.7307692308 0.1153846154 0.6538461538
0.7307692308 0.1153846154 0.7307692308
0.7307692308 0.1153846154 0.8076923077
0.7307692308 0.1153846154 0.8846153846
0.7307692308 0.1153846154 0.9615384615
0.7307692308 0.1923076923 0.0384615385
0.7307692308 0.1923076923 0.1153846154
0.7307692308 0.1923076923 0.1923076923
0.7307692308 0.1923076923 0.2692307692
0.7307692308 0.1923076923 0.3461538462
0.7307692308 0.1923076923 0.4230769231
0.7307692308 0.1923076923 0.5000000000
0.7307692308 0.1923076923 0.5769230769
0.7307692308 0.1923076923 0.6538461538
0.7307692308 0.1923076923 0.7307692308
0.7307692308 0.1923076923 0.8076923077
0.7307692308 0.1923076923 0.8846153846
0.7307692308 0.1923076923 0.9615384615
0.7307692308 0.2692307692 0.0384615385
0.7307692308 0.2692307692 0.1153846154
0.7307692308 0.2692307692 0.1923076923
0.7307692308 0.2692307692 0.2692307692
0.7307692308 0.2692307692 0.3461538462
0.7307692308 0.2692307692 0.4230769231
0.7307692308 0.2692307692 0.5000000000
0.7307692308 0.2692307692 0.5769230769
0.7307692308 0.2692307692 0.6538461538
0.7307692308 0.2692307692 0.7307692308
0.7307692308 0.2692307692 0.8076923077
0.7307692308 0.2692307692 0.8846153846
0.7307692308 0.2692307692 0.9615384615
0.7307692308 0.3461538462 0.0384615385
0.7307692308 0.3461538462 0.1153846154
0.7307692308 0.3461538462 0.1923076923
0.7307692308 0.3461538462 0.2692307692
0.7307692308 0.3461538462 0.3461538462
0.7307692308 0.3461538462 0.4230769231
0.7307692308 0.3461538462 0.5000000000
0.7307692308 0.3461538462 0.5769230769
0.7307692308 0.3461538462 0.6538461538
0.7307692308 0.3461538462 0.7307692308
0.7307692308 0.3461538462 0.8076923077
0.7307692308 0.3461538462 0.8846153846
0.7307692308 0.3461538462 0.9615384615
0.7307692308 0.4230769231 0.0384615385
0.7307692308 0.4230769231 0.1153846154
0.7307692308 0.4230769231 0.1923076923
0.7307692308 0.4230769231 0.2692307692
0.7307692308 0.4230769231 0.3461538462
0.7307692308 0.4230769231 0.4230769231
0.7307692308 0.4230769231 0.5000000000
0.7307692308 0.4230769231 0.5769230769
0.7307692308 0.4230769231 0.6538461538
0.7307692308 0.4230769231 0.7307692308
0.7307692308 0.4230769231 0.8076923077
0.7307692308 0.4230769231 0.8846153846
0.7307692308 0.4230769231 0.9615384615
0.7307692308 0.5000000000 0.0384615385
0.7307692308 0.5000000000 0.1153846154
0.7307692308 0.5000000000 0.1923076923
0.7307692308 0.5000000000 0.2692307692
0.7307692308 0.5000000000 0.3461538462
0.7307692308 0.5000000000 0.4230769231
0.7307692308 0.5000000000 0.5000000000
0.7307692308 0.5000000000 0.5769230769
0.7307692308 0.5000000000 0.6538461538
0.7307692308 0.5000000000 0.7307692308
0.7307692308 0.5000000000 0.8076923077
0.7307692308 0.5000000000 0.8846153846
0.7307692308 0.5000000000 0.9615384615
0.7307692308 0.5769230769 0.0384615385
0.7307692308 0.5769230769 0.1153846154
0.7307692308 0.5769230769 0.1923076923
0.7307692308 0.5769230769 0.2692307692
0.7307692308 0.5769230769 0.3461538462
0.7307692308 0.5769230769 0.4230769231
0.7307692308 0.5769230769 0.5000000000
0.7307692308 0.5769230769 0.5769230769
0.7307692308 0.5769230769 0.6538461538
0.7307692308 0.5769230769 0.7307692308
0.7307692308 0.5769230769 0.8076923077
0.7307692308 0.5769230769 0.8846153846
0.7307692308 0.5769230769 0.9615384615
0.7307692308 0.6538461538 0.0384615385
0.7307692308 0.6538461538 0.1153846154
0.7307692308 0.6538461538 0.1923076923
0.7307692308 0.6538461538 0.2692307692
0.7307692308 0.6538461538 0.3461538462
0.7307692308 0.6538461538 0.4230769231
0.7307692308 0.6538461538 0.5000000000
0.7307692308 0.6538461538 0.5769230769
0.7307692308 0.6538461538 0.6538461538
0.7307692308 0.6538461538 0.7307692308
0.7307692308 0.6538461538 0.8076923077
0.7307692308 0.6538461538 0.8846153846
0.7307692308 0.6538461538 0.9615384615
0.7307692308 0.7307692308 0.0384615385
0.7307692308 0.7307692308 0.1153846154
0.7307692308 0.7307692308 0.1923076923
0.7307692308 0.7307692308 0.2692307692
0.7307692308 0.7307692308 0.3461538462
0.7307692308 0.7307692308 0.4230769231
0.7307692308 0.7307692308 0.5000000000
0.7307692308 0.7307692308 0.5769230769
0.7307692308 0.7307692308 0.6538461538
0.7307692308 0.7307692308 0.7307692308
0.7307692308 0.7307692308 0.8076923077
0.7307692308 0.7307692308 0.8846153846
0.7307692308 0.7307692308 0.9615384615
0.7307692308 0.8076923077 0.0384615385
0.7307692308 0.8076923077 0.1153846154
0.7307692308 0.8076923077 0.1923076923
0.7307692308 0.8076923077 0.2692307692
0.7307692308 0.8076923077 0.3461538462
0.7307692308 0.8076923077 0.4230769231
0.7307692308 0.8076923077 0.5000000000
0.7307692308 0.8076923077 0.5769230769
0.7307692308 0.8076923077 0.6538461538
0.7307692308 0.8076923077 0.7307692308
0.7307692308 0.8076923077 0.8076923077
0.7307692308 0.8076923077 0.8846153846
0.7307692308 0.8076923077 0.9615384615
0.7307692308 0.8846153846 0.0384615385
0.7307692308 0.8846153846 0.1153846154
0.7307692308 0.8846153846 0.1923076923
0.7307692308 0.8846153846 0.2692307692
0.7307692308 0.8846153846 0.3461538462
0.7307692308 0.8846153846 0.4230769231
0.7307692308 0.8846153846 0.5000000000
0.7307692308 0.8846153846 0.5769230769
0.7307692308 0.8846153846 0.6538461538
0.7307692308 0.8846153846 0.7307692308
0.7307692308 0.8846153846 0.8076923077
0.7307692308 0.8846153846 0.8846153846
0.7307692308 0.8846153846 0.9615384615
0.7307692308 0.9615384615 0.0384615385
0.7307692308 0.9615384615 0.1153846154
0.7307692308 0.9615384615 0.1923076923
0.7307692308 0.9615384615 0.2692307692
0.7307692308 0.9615384615 0.3461538462
0.7307692308 0.9615384615 0.4230769231
0.7307692308 0.9615384615 0.5000000000
0.7307692308 0.9615384615 0.5769230769
0.7307692308 0.9615384615 0.6538461538
0.7307692308 0.9615384615 0.7307692308
0.7307692308 0.9615384615 0.8076923077
0.7307692308 0.9615384615 0.8846153846
0.7307692308 0.9615384615 0.9615384615
0.8076923077 0.0384615385 0.0384615385
0.8076923077 0.0384615385 0.1153846154
0.8076923077 0.0384615385 0.1923076923
0.8076923077 0.0384615385 0.2692307692
0.8076923077 0.0384615385 0.3461538462
0.8076923077 0.0384615385 0.4230769231
0.8076923077 0.0384615385 0.5000000000
0.8076923077 0.0384615385 0.5769230769
0.8076923077 0.0384615385 0.6538461538
0.8076923077 0.0384615385 0.7307692308
0.8076923077 0.0384615385 0.8076923077
0.8076923077 0.0384615385 0.8846153846
0.8076923077 0.0384615385 0.9615384615
0.8076923077 0.1153846154 0.0384615385
0.8076923077 0.1153846154 0.1153846154
0.8076923077 0.1153846154 0.1923076923
0.8076923077 0.1153846154 0.2692307692
0.8076923077 0.1153846154 0.3461538462
0.8076923077 0.1153846154 0.4230769231
0.8076923077 0.1153846154 0.5000000000
0.8076923077 0.1153846154 0.5769230769
0.8076923077 0.1153846154 0.6538461538
0.8076923077 0.1153846154 0.7307692308
0.8076923077 0.1153846154 0.8076923077
0.8076923077 0.1153846154 0.8846153846
0.8076923077 0.1153846154 0.9615384615
0.8076923077 0.1923076923 0.0384615385
0.8076923077 0.1923076923 0.1153846154
0.8076923077 0.1923076923 0.1923076923
0.8076923077 0.1923076923 0.2692307692
0.8076923077 0.1923076923 0.3461538462
0.8076923077 0.1923076923 0.4230769231
0.8076923077 0.1923076923 0.5000000000
0.8076923077 0.1923076923 0.5769230769
0.8076923077 0.1923076923 0.6538461538
0.8076923077 0.1923076923 0.7307692308
0.8076923077 0.1923076923 0.8076923077
0.8076923077 0.1923076923 0.8846153846
0.8076923077 0.1923076923 0.9615384615
0.8076923077 0.2692307692 0.0384615385
0.8076923077 0.2692307692 0.1153846154
0.8076923077 0.2692307692 0.1923076923
0.8076923077 0.2692307692 0.2692307692
0.8076923077 0.2692307692 0.3461538462
0.8076923077 0.2692307692 0.4230769231
0.8076923077 0.2692307692 0.5000000000
0.8076923077 0.2692307692 0.5769230769
0.8076923077 0.2692307692 0.6538461538
0.8076923077 0.2692307692 0.7307692308
0.8076923077 0.2692307692 0.8076923077
0.8076923077 0.2692307692 0.8846153846
0.8076923077 0.2692307692 0.9615384615
0.8076923077 0.3461538462 0.0384615385
0.8076923077 0.3461538462 0.1153846154
0.8076923077 0.3461538462 0.1923076923
0.8076923077 0.3461538462 0.2692307692
0.8076923077 0.3461538462 0.3461538462
0.8076923077 0.3461538462 0.4230769231
0.8076923077 0.3461538462 0.5000000000
0.8076923077 0.3461538462 0.5769230769
0.8076923077 0.3461538462 0.6538461538
0.8076923077 0.3461538462 0.7307692308
0.8076923077 0.3461538462 0.8076923077
0.8076923077 0.3461538462 0.8846153846
0.8076923077 0.3461538462 0.9615384615
0.8076923077 0.4230769231 0.0384615385
0.8076923077 0.4230769231 0.1153846154
0.8076923077 0.4230769231 0.1923076923
0.8076923077 0.4230769231 0.2692307692
0.8076923077 0.4230769231 0.3461538462
0.8076923077 0.4230769231 0.4230769231
0.8076923077 0.4230769231 0.5000000000
0.8076923077 0.4230769231 0.5769230769
0.8076923077 0.4230769231 0.6538461538
0.8076923077 0.4230769231 0.7307692308
0.8076923077 0.4230769231 0.8076923077
0.8076923077 0.4230769231 0.8846153846
0.8076923077 0.4230769231 0.9615384615
0.8076923077 0.5000000000 0.0384615385
0.8076923077 0.5000000000 0.1153846154
0.8076923077 0.5000000000 0.1923076923
0.8076923077 0.5000000000 0.2692307692
0.8076923077 0.5000000000 0.3461538462
0.8076923077 0.5000000000 0.4230769231
0.8076923077 0.5000000000 0.5000000000
0.8076923077 0.5000000000 0.5769230769
0.8076923077 0.5000000000 0.6538461538
0.8076923077 0.5000000000 0.7307692308
0.8076923077 0.5000000000 0.8076923077
0.8076923077 0.5000000000 0.8846153846
0.8076923077 0.5000000000 0.9615384615
0.8076923077 0.5769230769 0.0384615385
0.8076923077 0.5769230769 0.1153846154
0.8076923077 0.5769230769 0.1923076923
0.8076923077 0.5769230769 0.2692307692
0.8076923077 0.5769230769 0.3461538462
0.8076923077 0.5769230769 0.4230769231
0.8076923077 0.5769230769 0.5000000000
0.8076923077 0.5769230769 0.5769230769
0.8076923077 0.5769230769 0.6538461538
0.8076923077 0.5769230769 0.7307692308
0.8076923077 0.5769230769 0.8076923077
0.8076923077 0.5769230769 0.8846153846
0.8076923077 0.5769230769 0.9615384615
0.8076923077 0.6538461538 0.0384615385
0.8076923077 0.6538461538 0.1153846154
0.8076923077 0.6538461538 0.1923076923
0.8076923077 0.6538461538 0.2692307692
0.8076923077 0.6538461538 0.3461538462
0.8076923077 0.6538461538 0.4230769231
0.8076923077 0.6538461538 0.5000000000
0.8076923077 0.6538461538 0.5769230769
0.8076923077 0.6538461538 0.6538461538
0.8076923077 0.6538461538 0.7307692308
0.8076923077 0.6538461538 0.8076923077
0.8076923077 0.6538461538 0.8846153846
0.8076923077 0.6538461538 0.9615384615
0.8076923077 0.7307692308 0.0384615385
0.8076923077 0.7307692308 0.1153846154
0.8076923077 0.7307692308 0.1923076923
0.8076923077 0.7307692308 0.2692307692
0.8076923077 0.7307692308 0.3461538462
0.8076923077 0.7307692308 0.4230769231
0.8076923077 0.7307692308 0.5000000000
0.8076923077 0.7307692308 0.5769230769
0.8076923077 0.7307692308 0.6538461538
0.8076923077 0.7307692308 0.7307692308
0.8076923077 0.7307692308 0.8076923077
0.8076923077 0.7307692308 0.8846153846
0.8076923077 0.7307692308 0.9615384615
0.8076923077 0.8076923077 0.0384615385
0.8076923077 0.8076923077 0.1153846154
0.8076923077 0.8076923077 0.1923076923
0.8076923077 0.8076923077 0.2692307692
0.8076923077 0.8076923077 0.3461538462
0.8076923077 0.8076923077 0.4230769231
0.8076923077 0.8076923077 0.5000000000
0.8076923077 0.8076923077 0.5769230769
0.8076923077 0.8076923077 0.6538461538
0.8076923077 0.8076923077 0.7307692308
0.8076923077 0.8076923077 0.8076923077
0.8076923077 0.8076923077 0.8846153846
0.8076923077 0.8076923077 0.9615384615
0.8076923077 0.8846153846 0.0384615385
0.8076923077 0.8846153846 0.1153846154
0.8076923077 0.8846153846 0.1923076923
0.8076923077 0.8846153846 0.2692307692
0.8076923077 0.8846153846 0.3461538462
0.8076923077 0.8846153846 0.4230769231
0.8076923077 0.8846153846 0.5000000000
0.8076923077 0.8846153846 0.5769230769
0.8076923077 0.8846153846 0.6538461538
0.8076923077 0.8846153846 0.7307692308
0.8076923077 0.8846153846 0.8076923077
0.8076923077 0.8846153846 0.8846153846
0.8076923077 0.8846153846 0.9615384615
0.8076923077 0.9615384615 0.0384615385
0.8076923077 0.9615384615 0.1153846154
0.8076923077 0.9615384615 0.1923076923
0.8076923077 0.9615384615 0.2692307692
0.8076923077 0.9615384615 0.3461538462
0.8076923077 0.9615384615 0.4230769231
0.8076923077 0.9615384615 0.5000000000
0.8076923077 0.9615384615 0.5769230769
0.8076923077 0.9615384615 0.6538461538
0.8076923077 0.9615384615 0.7307692308
0.8076923077 0.9615384615 0.8076923077
0.8076923077 0.9615384615 0.8846153846
0.8076923077 0.9615384615 0.9615384615
0.8846153846 0.0384615385 0.0384615385
0.8846153846 0.0384615385 0.1153846154
0.8846153846 0.0384615385 0.1923076923
0.8846153846 0.0384615385 0.2692307692
0.8846153846 0.0384615385 0.3461538462
0.8846153846 0.0384615385 0.4230769231
0.8846153846 0.0384615385 0.5000000000
0.8846153846 0.0384615385 0.5769230769
0.8846153846 0.0384615385 0.6538461538
0.8846153846 0.0384615385 0.7307692308
0.8846153846 0.0384615385 0.8076923077
0.8846153846 0.0384615385 0.8846153846
0.8846153846 0.0384615385 0.9615384615
0.8846153846 0.1153846154 0.0384615385
0.8846153846 0.1153846154 0.1153846154
0.8846153846 0.1153846154 0.1923076923
0.8846153846 0.1153846154 0.2692307692
0.8846153846 0.1153846154 0.3461538462
0.8846153846 0.1153846154 0.4230769231
0.8846153846 0.1153846154 0.5000000000
0.8846153846 0.1153846154 0.5769230769
0.8846153846 0.1153846154 0.6538461538
0.8846153846 0.1153846154 0.7307692308
0.8846153846 0.1153846154 0.8076923077
0.8846153846 0.1153846154 0.8846153846
0.8846153846 0.1153846154 0.9615384615
0.8846153846 0.1923076923 0.0384615385
0.8846153846 0.1923076923 0.1153846154
0.8846153846 0.1923076923 0.1923076923
0.8846153846 0.1923076923 0.2692307692
0.8846153846 0.1923076923 0.3461538462
0.8846153846 0.1923076923 0.4230769231
0.8846153846 0.1923076923 0.5000000000
0.8846153846 0.1923076923 0.5769230769
0.8846153846 0.1923076923 0.6538461538
0.8846153846 0.1923076923 0.7307692308
0.8846153846 0.1923076923 0.8076923077
0.8846153846 0.1923076923 0.8846153846
0.8846153846 0.1923076923 0.9615384615
0.8846153846 0.2692307692 0.0384615385
0.8846153846 0.2692307692 0.1153846154
0.8846153846 0.2692307692 0.1923076923
0.8846153846 0.2692307692 0.2692307692
0.8846153846 0.2692307692 0.3461538462
0.8846153846 0.2692307692 0.4230769231
0.8846153846 0.2692307692 0.5000000000
0.8846153846 0.2692307692 0.5769230769
0.8846153846 0.2692307692 0.6538461538
0.8846153846 0.2692307692 0.7307692308
0.8846153846 0.2692307692 0.8076923077
0.8846153846 0.2692307692 0.8846153846
0.8846153846 0.2692307692 0.9615384615
0.8846153846 0.3461538462 0.0384615385
0.8846153846 0.3461538462 0.1153846154
0.8846153846 0.3461538462 0.1923076923
0.8846153846 0.3461538462 0.2692307692
0.8846153846 0.3461538462 0.3461538462
0.8846153846 0.3461538462 0.4230769231
0.8846153846 0.3461538462 0.5000000000
0.8846153846 0.3461538462 0.5769230769
0.8846153846 0.3461538462 0.6538461538
0.8846153846 0.3461538462 0.7307692308
0.8846153846 0.3461538462 0.8076923077
0.8846153846 0.3461538462 0.8846153846
0.8846153846 0.3461538462 0.9615384615
0.8846153846 0.4230769231 0.0384615385
0.8846153846 0.4230769231 0.1153846154
0.8846153846 0.4230769231 0.1923076923
0.8846153846 0.4230769231 0.2692307692
0.8846153846 0.4230769231 0.3461538462
0.8846153846 0.4230769231 0.4230769231
0.8846153846 0.4230769231 0.5000000000
0.8846153846 0.4230769231 0.5769230769
0.8846153846 0.4230769231 0.6538461538
0.8846153846 0.4230769231 0.7307692308
0.8846153846 0.4230769231 0.8076923077
0.8846153846 0.4230769231 0.8846153846
0.8846153846 0.4230769231 0.9615384615
0.8846153846 0.5000000000 0.0384615385
0.8846153846 0.5000000000 0.1153846154
0.8846153846 0.5000000000 0.1923076923
0.8846153846 0.5000000000 0.2692307692
0.8846153846 0.5000000000 0.3461538462
0.8846153846 0.5000000000 0.4230769231
0.8846153846 0.5000000000 0.5000000000
0.8846153846 0.5000000000 0.5769230769
0.8846153846 0.5000000000 0.6538461538
0.8846153846 0.5000000000 0.7307692308
0.8846153846 0.5000000000 0.8076923077
0.8846153846 0.5000000000 0.8846153846
0.8846153846 0.5000000000 0.9615384615
0.8846153846 0.5769230769 0.0384615385
0.8846153846 0.5769230769 0.1153846154
0.8846153846 0.5769230769 0.1923076923
0.8846153846 0.5769230769 0.2692307692
0.8846153846 0.5769230769 0.3461538462
0.8846153846 0.5769230769 0.4230769231
0.8846153846 0.5769230769 0.5000000000
0.8846153846 0.5769230769 0.5769230769
0.8846153846 0.5769230769 0.6538461538
0.8846153846 0.5769230769 0.7307692308
0.8846153846 0.5769230769 0.8076923077
0.8846153846 0.5769230769 0.8846153846
0.8846153846 0.5769230769 0.9615384615
0.8846153846 0.6538461538 0.0384615385
0.8846153846 0.6538461538 0.1153846154
0.8846153846 0.6538461538 0.1923076923
0.8846153846 0.6538461538 0.2692307692
0.8846153846 0.6538461538 0.3461538462
0.8846153846 0.6538461538 0.4230769231
0.8846153846 0.6538461538 0.5000000000
0.8846153846 0.6538461538 0.5769230769
0.8846153846 0.6538461538 0.6538461538
0.8846153846 0.6538461538 0.7307692308
0.8846153846 0.6538461538 0.8076923077
0.8846153846 0.6538461538 0.8846153846
0.8846153846 0.6538461538 0.9615384615
0.8846153846 0.7307692308 0.0384615385
0.8846153846 0.7307692308 0.1153846154
0.8846153846 0.7307692308 0.1923076923
0.8846153846 0.7307692308 0.2692307692
0.8846153846 0.7307692308 0.3461538462
0.8846153846 0.7307692308 0.4230769231
0.8846153846 0.7307692308 0.5000000000
0.8846153846 0.7307692308 0.5769230769
0.8846153846 0.7307692308 0.6538461538
0.8846153846 0.7307692308 0.7307692308
0.8846153846 0.7307692308 0.8076923077
0.8846153846 0.7307692308 0.8846153846
0.8846153846 0.7307692308 0.9615384615
0.8846153846 0.8076923077 0.0384615385
0.8846153846 0.8076923077 0.1153846154
0.8846153846 0.8076923077 0.1923076923
0.8846153846 0.8076923077 0.2692307692
0.8846153846 0.8076923077 0.3461538462
0.8846153846 0.8076923077 0.4230769231
0.8846153846 0.8076923077 0.5000000000
0.8846153846 0.8076923077 0.5769230769
0.8846153846 0.8076923077 0.6538461538
0.8846153846 0.8076923077 0.7307692308
0.8846153846 0.8076923077 0.8076923077
0.8846153846 0.8076923077 0.8846153846
0.8846153846 0.8076923077 0.9615384615
0.8846153846 0.8846153846 0.0384615385
0.8846153846 0.8846153846 0.1153846154
0.8846153846 0.8846153846 0.1923076923
0.8846153846 0.8846153846 0.2692307692
0.8846153846 0.8846153846 0.3461538462
0.8846153846 0.8846153846 0.4230769231
0.8846153846 0.8846153846 0.5000000000
0.8846153846 0.8846153846 0.5769230769
0.8846153846 0.8846153846 0.6538461538
0.8846153846 0.8846153846 0.7307692308
0.8846153846 0.8846153846 0.8076923077
0.8846153846 0.8846153846 0.8846153846
0.8846153846 0.8846153846 0.9615384615
0.8846153846 0.9615384615 0.0384615385
0.8846153846 0.9615384615 0.1153846154
0.8846153846 0.9615384615 0.1923076923
0.8846153846 0.9615384615 0.2692307692
0.8846153846 0.9615384615 0.3461538462
0.8846153846 0.9615384615 0.4230769231
0.8846153846 0.9615384615 0.5000000000
0.8846153846 0.9615384615 0.5769230769
0.8846153846 0.9615384615 0.6538461538
0.8846153846 0.9615384615 0.7307692308
0.8846153846 0.9615384615 0.8076923077
0.8846153846 0.9615384615 0.8846153846
0.8846153846 0.9615384615 0.9615384615
0.9615384615 0.0384615385 0.0384615385
0.9615384615 0.0384615385 0.1153846154
0.9615384615 0.0384615385 0.1923076923
0.9615384615 0.0384615385 0.2692307692
0.9615384615 0.0384615385 0.3461538462
0.9615384615 0.0384615385 0.4230769231
0.9615384615 0.0384615385 0.5000000000
0.9615384615 0.0384615385 0.5769230769
0.9615384615 0.0384615385 0.6538461538
0.9615384615 0.0384615385 0.7307692308
0.9615384615 0.0384615385 0.8076923077
0.9615384615 0.0384615385 0.8846153846
0.9615384615 0.0384615385 0.9615384615
0.9615384615 0.1153846154 0.0384615385
0.9615384615 0.1153846154 0.1153846154
0.9615384615 0.1153846154 0.1923076923
0.9615384615 0.1153846154 0.2692307692
0.9615384615 0.1153846154 0.3461538462
0.9615384615 0.1153846154 0.4230769231
0.9615384615 0.1153846154 0.5000000000
0.9615384615 0.1153846154 0.5769230769
0.9615384615 0.1153846154 0.6538461538
0.9615384615 0.1153846154 0.7307692308
0.9615384615 0.1153846154 0.8076923077
0.9615384615 0.1153846154 0.8846153846
0.9615384615 0.1153846154 0.9615384615
0.9615384615 0.1923076923 0.0384615385
0.9615384615 0.1923076923 0.1153846154
0.9615384615 0.1923076923 0.1923076923
0.9615384615 0.1923076923 0.2692307692
0.9615384615 0.1923076923 0.3461538462
0.9615384615 0.1923076923 0.4230769231
0.9615384615 0.1923076923 0.5000000000
0.9615384615 0.1923076923 0.5769230769
0.9615384615 0.1923076923 0.6538461538
0.9615384615 0.1923076923 0.7307692308
0.9615384615 0.1923076923 0.8076923077
0.9615384615 0.1923076923 0.8846153846
0.9615384615 0.1923076923 0.9615384615
0.9615384615 0.2692307692 0.0384615385
0.9615384615 0.2692307692 0.1153846154
0.9615384615 0.2692307692 0.1923076923
0.9615384615 0.2692307692 0.2692307692
0.9615384615 0.2692307692 0.3461538462
0.9615384615 0.2692307692 0.4230769231
0.9615384615 0.2692307692 0.5000000000
0.9615384615 0.2692307692 0.5769230769
0.9615384615 0.2692307692 0.6538461538
0.9615384615 0.2692307692 0.7307692308
0.9615384615 0.2692307692 0.8076923077
0.9615384615 0.2692307692 0.8846153846
0.9615384615 0.2692307692 0.9615384615
0.9615384615 0.3461538462 0.0384615385
0.9615384615 0.3461538462 0.1153846154
0.9615384615 0.3461538462 0.1923076923
0.9615384615 0.3461538462 0.2692307692
0.9615384615 0.3461538462 0.3461538462
0.9615384615 0.3461538462 0.4230769231
0.9615384615 0.3461538462 0.5000000000
0.9615384615 0.3461538462 0.5769230769
0.9615384615 0.3461538462 0.6538461538
0.9615384615 0.3461538462 0.7307692308
0.9615384615 0.3461538462 0.8076923077
0.9615384615 0.3461538462 0.8846153846
0.9615384615 0.3461538462 0.9615384615
0.9615384615 0.4230769231 0.0384615385
0.9615384615 0.4230769231 0.1153846154
0.9615384615 0.4230769231 0.1923076923
0.9615384615 0.4230769231 0.2692307692
0.9615384615 0.4230769231 0.3461538462
0.9615384615 0.4230769231 0.4230769231
0.9615384615 0.4230769231 0.5000000000
0.9615384615 0.4230769231 0.5769230769
0.9615384615 0.4230769231 0.6538461538
0.9615384615 0.4230769231 0.7307692308
0.9615384615 0.4230769231 0.8076923077
0.9615384615 0.4230769231 0.8846153846
0.9615384615 0.4230769231 0.9615384615
0.9615384615 0.5000000000 0.0384615385
0.9615384615 0.5000000000 0.1153846154
0.9615384615 0.5000000000 0.1923076923
0.9615384615 0.5000000000 0.2692307692
0.9615384615 0.5000000000 0.3461538462
0.9615384615 0.5000000000 0.4230769231
0.9615384615 0.5000000000 0.5000000000
0.9615384615 0.5000000000 0.5769230769
0.9615384615 0.5000000000 0.6538461538
0.9615384615 0.5000000000 0.7307692308
0.9615384615 0.5000000000 0.8076923077
0.9615384615 0.5000000000 0.8846153846
0.9615384615 0.5000000000 0.9615384615
0.9615384615 0.5769230769 0.0384615385
0.9615384615 0.5769230769 0.1153846154
0.9615384615 0.5769230769 0.1923076923
0.9615384615 0.5769230769 0.2692307692
0.9615384615 0.5769230769 0.3461538462
0.9615384615 0.5769230769 0.4230769231
0.9615384615 0.5769230769 0.5000000000
0.9615384615 0.5769230769 0.5769230769
0.9615384615 0.5769230769 0.6538461538
0.9615384615 0.5769230769 0.7307692308
0.9615384615 0.5769230769 0.8076923077
0.9615384615 0.5769230769 0.8846153846
0.9615384615 0.5769230769 0.9615384615
0.9615384615 0.6538461538 0.0384615385
0.9615384615 0.6538461538 0.1153846154
0.9615384615 0.6538461538 0.1923076923
0.9615384615 0.6538461538 0.2692307692
0.9615384615 0.6538461538 0.3461538462
0.9615384615 0.6538461538 0.4230769231
0.9615384615 0.6538461538 0.5000000000
0.9615384615 0.6538461538 0.5769230769
0.9615384615 0.6538461538 0.6538461538
0.9615384615 0.6538461538 0.7307692308
0.9615384615 0.6538461538 0.8076923077
0.9615384615 0.6538461538 0.8846153846
0.9615384615 0.6538461538 0.9615384615
0.9615384615 0.7307692308 0.0384615385
0.9615384615 0.7307692308 0.1153846154
0.9615384615 0.7307692308 0.1923076923
0.9615384615 0.7307692308 0.2692307692
0.9615384615 0.7307692308 0.3461538462
0.9615384615 0.7307692308 0.4230769231
0.9615384615 0.7307692308 0.5000000000
0.9615384615 0.7307692308 0.5769230769
0.9615384615 0.7307692308 0.6538461538
0.9615384615 0.7307692308 0.7307692308
0.9615384615 0.7307692308 0.8076923077
0.9615384615 0.7307692308 0.8846153846
0.9615384615 0.7307692308 0.9615384615
0.9615384615 0.8076923077 0.0384615385
0.9615384615 0.8076923077 0.1153846154
0.9615384615 0.8076923077 0.1923076923
0.9615384615 0.8076923077 0.2692307692
0.9615384615 0.8076923077 0.3461538462
0.9615384615 0.8076923077 0.4230769231
0.9615384615 0.8076923077 0.5000000000
0.9615384615 0.8076923077 0.5769230769
0.9615384615 0.8076923077 0.6538461538
0.9615384615 0.8076923077 0.7307692308
0.9615384615 0.8076923077 0.8076923077
0.9615384615 0.8076923077 0.8846153846
0.9615384615 0.8076923077 0.9615384615
0.9615384615 0.8846153846 0.0384615385
0.9615384615 0.8846153846 0.1153846154
0.9615384615 0.8846153846 0.1923076923
0.9615384615 0.8846153846 0.2692307692
0.9615384615 0.8846153846 0.3461538462
0.9615384615 0.8846153846 0.4230769231
0.9615384615 0.8846153846 0.5000000000
0.9615384615 0.8846153846 0.5769230769
0.9615384615 0.8846153846 0.6538461538
0.9615384615 0.8846153846 0.7307692308
0.9615384615 0.8846153846 0.8076923077
0.9615384615 0.8846153846 0.8846153846
0.9615384615 0.8846153846 0.9615384615
0.9615384615 0.9615384615 0.0384615385
0.9615384615 0.9615384615 0.1153846154
0.9615384615 0.9615384615 0.1923076923
0.9615384615 0.9615384615 0.2692307692
0.9615384615 0.9615384615 0.3461538462
0.9615384615 0.9615384615 0.4230769231
0.9615384615 0.9615384615 0.5000000000
0.9615384615 0.9615384615 0.5769230769
0.9615384615 0.9615384615 0.6538461538
0.9615384615 0.9615384615 0.7307692308
0.9615384615 0.9615384615 0.8076923077
0.9615384615 0.9615384615 0.8846153846
0.9615384615 0.9615384615 0.9615384615
