RandomStructure-4
1.0
    6.684955     0.152184     0.101111
   -0.065899     5.046752     0.239339
   -0.084361    -0.043532     2.655114
Ca F
20 17
Direct
  0.050103   0.938936   0.740502
  0.610390   0.537061   0.541558
  0.618681   0.183057   0.127533
  0.744051   0.038936   0.758687
  0.621705   0.970526   0.426881
  0.214515   0.952646   0.058655
  0.478389   0.379348   0.198998
  0.444178   0.430944   0.506133
  0.264704   0.424933   0.591270
  0.355297   0.778963   0.910615
  0.547009   0.947781   0.824696
  0.307288   0.950777   0.709214
  0.938408   0.072112   0.229504
  0.863103   0.108105   0.545861
  0.589915   0.833354   0.372339
  0.787413   0.429289   0.143594
  0.395922   0.720575   0.026009
  0.287870   0.215744   0.134856
  0.223692   0.029058   0.246633
  0.294115   0.779998   0.121331
  0.717760   0.665487   0.759092
  0.553019   0.585805   0.066271
  0.714061   0.182214   0.614931
  0.907069   0.570338   0.999897
  0.959924   0.548383   0.321304
  0.562750   0.107812   0.282131
  0.825576   0.082379   0.442317
  0.082976   0.590467   0.134835
  0.815719   0.973870   0.616514
  0.020295   0.673278   0.504165
  0.259995   0.819635   0.842882
  0.914081   0.903952   0.750370
  0.755875   0.976836   0.164994
  0.661106   0.468468   0.335315
  0.776791   0.174871   0.781979
  0.626351   0.326611   0.088088
  0.459957   0.872400   0.730144
