RandomStructure-6
1.0
    3.608643    -0.020499    -0.207478
   -0.058527     4.115580     0.247981
   -0.164935    -0.245903     2.647042
Si Mg V
2 17 9
Direct
  0.679518   0.955046   0.250835
  0.058216   0.134848   0.694042
  0.271113   0.904335   0.442189
  0.106480   0.893634   0.324750
  0.298478   0.721034   0.761620
  0.617486   0.123895   0.672265
  0.313035   0.732839   0.863035
  0.435446   0.693149   0.665222
  0.585356   0.715361   0.592829
  0.527290   0.083813   0.654541
  0.912666   0.259699   0.231752
  0.975918   0.334793   0.262853
  0.357831   0.313598   0.012705
  0.001028   0.113795   0.052282
  0.751089   0.897486   0.072914
  0.799789   0.512212   0.307086
  0.531748   0.795742   0.325881
  0.675601   0.035015   0.454081
  0.001199   0.039067   0.567536
  0.706900   0.487742   0.683852
  0.780134   0.601337   0.667065
  0.896867   0.523651   0.520095
  0.000860   0.989831   0.777600
  0.927102   0.977267   0.771299
  0.651853   0.352558   0.596212
  0.713396   0.254526   0.643089
  0.513607   0.806362   0.297833
  0.252129   0.157078   0.528611
