RandomStructure-1
1.0
    4.161425    -0.007133     0.228451
    0.015112     5.912033     0.003271
   -0.121702    -0.083594     2.198881
K Co
8 12
Direct
  0.014422   0.013102   0.548152
  0.853603   0.038598   0.179839
  0.253233   0.055112   0.193312
  0.635652   0.574856   0.337674
  0.110126   0.916256   0.124457
  0.075095   0.343593   0.366307
  0.035144   0.598934   0.385053
  0.901697   0.111513   0.715353
  0.084688   0.382065   0.549877
  0.040713   0.814510   0.209427
  0.926461   0.555240   0.574441
  0.934068   0.498693   0.903799
  0.672849   0.800635   0.744805
  0.456925   0.591104   0.789826
  0.915477   0.701287   0.718090
  0.068287   0.634409   0.997681
  0.335434   0.026008   0.698699
  0.864234   0.345402   0.157296
  0.954377   0.317870   0.120085
  0.724970   0.557314   0.637731
