RandomStructure-8
1.0
    6.097557    -0.100163    -0.023733
    0.198344     4.010138     0.145220
    0.175159     0.232164     6.033788
O Cl Al
8 18 14
Direct
  0.530633   0.625858   0.455814
  0.773195   0.390974   0.118866
  0.048332   0.445239   0.124478
  0.636100   0.503630   0.977663
  0.890045   0.532682   0.916422
  0.650185   0.992115   0.458862
  0.114362   0.449093   0.189597
  0.775443   0.179454   0.840053
  0.040951   0.796811   0.509941
  0.203253   0.183318   0.077737
  0.262674   0.566083   0.731721
  0.807733   0.061858   0.745467
  0.854819   0.475629   0.129695
  0.039362   0.183013   0.908999
  0.871386   0.265399   0.108126
  0.496923   0.379236   0.516241
  0.002903   0.462466   0.874661
  0.896887   0.304500   0.984950
  0.799120   0.475160   0.173063
  0.373917   0.494529   0.711109
  0.765671   0.893244   0.208243
  0.679553   0.677250   0.942850
  0.935450   0.516622   0.128963
  0.775995   0.523797   0.391346
  0.784698   0.916600   0.505586
  0.228480   0.760105   0.831466
  0.026437   0.274762   0.858349
  0.267461   0.579245   0.595311
  0.016424   0.839287   0.752074
  0.560236   0.771780   0.017683
  0.623690   0.396949   0.257191
  0.946571   0.952486   0.105873
  0.632486   0.803241   0.456870
  0.677918   0.024442   0.856865
  0.432743   0.164049   0.898309
  0.914856   0.439133   0.434103
  0.424913   0.828680   0.107911
  0.248386   0.691198   0.471539
  0.483406   0.472591   0.780967
  0.342246   0.666899   0.828536
