RandomStructure-3
1.0
    5.140403     0.087773     0.203065
    0.132091     5.696851     0.143569
   -0.086948    -0.154503     2.635321
Co Na Cu
12 17 14
Direct
  0.423691   0.747604   0.329891
  0.827156   0.028386   0.130761
  0.255922   0.270775   0.917097
  0.455636   0.841720   0.539888
  0.886857   0.315091   0.885298
  0.934308   0.075634   0.582594
  0.125112   0.583270   0.274326
  0.167285   0.949225   0.895893
  0.711774   0.416410   0.743429
  0.878920   0.240206   0.379987
  0.001619   0.974032   0.806360
  0.266951   0.682380   0.461758
  0.476913   0.078140   0.220367
  0.136438   0.413264   0.983184
  0.509621   0.955049   0.267864
  0.770891   0.798380   0.550765
  0.956584   0.693605   0.430454
  0.877016   0.656983   0.656181
  0.082451   0.851984   0.838382
  0.018348   0.214492   0.093588
  0.086758   0.578859   0.544718
  0.334883   0.197293   0.614255
  0.728883   0.473700   0.229378
  0.146852   0.428097   0.188423
  0.743769   0.069100   0.649006
  0.987226   0.469764   0.086320
  0.151026   0.518221   0.082456
  0.708211   0.413379   0.142720
  0.396777   0.004136   0.865806
  0.636727   0.645205   0.298656
  0.833178   0.735390   0.183441
  0.033111   0.712817   0.629962
  0.444719   0.001640   0.816794
  0.469405   0.553010   0.489102
  0.400098   0.294179   0.713688
  0.842919   0.702259   0.410732
  0.360825   0.055429   0.492629
  0.736855   0.096620   0.606289
  0.705793   0.501903   0.104442
  0.928859   0.971043   0.478287
  0.620530   0.864975   0.998031
  0.629419   0.034530   0.396630
  0.114289   0.931557   0.663699
