RandomStructure-7
1.0
    6.762188     0.231169     0.226030
    0.068118     6.697768    -0.025107
    0.153612    -0.046187     3.389052
Cl
10
Direct
  0.804219   0.104671   0.355824
  0.179636   0.789300   0.257546
  0.155744   0.815024   0.833558
  0.663197   0.141470   0.887963
  0.536235   0.342420   0.203744
  0.995810   0.458423   0.361824
  0.061736   0.298023   0.621863
  0.988970   0.075694   0.571826
  0.498859   0.033157   0.029847
  0.865004   0.726032   0.292851
