RandomStructure-9
1.0
    3.014211    -0.238801    -0.035249
   -0.068365     2.045348    -0.018655
   -0.169911     0.065875     2.611606
Cu
5
Direct
  0.761768   0.505210   0.650891
  0.136600   0.523218   0.357632
  0.642655   0.862220   0.053792
  0.434160   0.974633   0.115784
  0.176078   0.007202   0.957773
