Pt
 1.0000000000000000
    13.5792783313399976    0.0000000000000000    0.0000000000000000
     0.0000000000000000   16.6311514935075984    0.0000000000000000
     0.0000000000000000    0.0000000000000000   18.8018331424008878
 Pt 
 144
Cartesian
  4.5264261104466659  1.3859292911256340 13.8018331424008878
  4.5264261104466659  4.1577878733769005 13.8018331424008878
  4.5264261104466659  6.9296464556281663 13.8018331424008878
  4.5264261104466659  9.7015050378794339 13.8018331424008878
  4.5264261104466659 12.4733636201306997 13.8018331424008878
  4.5264261104466659 15.2452222023819655 13.8018331424008878
 11.3160652761166638  1.3859292911256340 13.8018331424008878
 11.3160652761166638  4.1577878733769005 13.8018331424008878
 11.3160652761166638  6.9296464556281663 13.8018331424008878
 11.3160652761166638  9.7015050378794339 13.8018331424008878
 11.3160652761166638 12.4733636201306997 13.8018331424008878
 11.3160652761166638 15.2452222023819655 13.8018331424008878
  2.2632130552233334  0.0000000000000006 13.0016664930917152
  2.2632130552233334  2.7718585822512667 13.0016664930917152
  2.2632130552233334  5.5437171645025334 13.0016664930917152
  2.2632130552233334  8.3155757467537992 13.0016664930917152
  2.2632130552233334 11.0874343290050650 13.0016664930917152
  2.2632130552233334 13.8592929112563308 13.0016664930917152
  9.0528522208933317  0.0000000000000006 13.0016664930917152
  9.0528522208933317  2.7718585822512667 13.0016664930917152
  9.0528522208933317  5.5437171645025334 13.0016664930917152
  9.0528522208933317  8.3155757467537992 13.0016664930917152
  9.0528522208933317 11.0874343290050650 13.0016664930917152
  9.0528522208933317 13.8592929112563308 13.0016664930917152
  0.0000000000000001  1.3859292911256336 12.2014998437825426
  0.0000000000000001  4.1577878733768996 12.2014998437825426
  0.0000000000000001  6.9296464556281663 12.2014998437825426
  0.0000000000000001  9.7015050378794321 12.2014998437825426
  0.0000000000000001 12.4733636201306979 12.2014998437825426
  0.0000000000000001 15.2452222023819637 12.2014998437825426
  6.7896391656699988  1.3859292911256336 12.2014998437825426
  6.7896391656699988  4.1577878733768996 12.2014998437825426
  6.7896391656699988  6.9296464556281663 12.2014998437825426
  6.7896391656699988  9.7015050378794321 12.2014998437825426
  6.7896391656699988 12.4733636201306979 12.2014998437825426
  6.7896391656699988 15.2452222023819637 12.2014998437825426
  4.5264261104466659  0.0000000000000005 11.4013331944733736
  4.5264261104466659  2.7718585822512667 11.4013331944733736
  4.5264261104466659  5.5437171645025334 11.4013331944733736
  4.5264261104466659  8.3155757467537992 11.4013331944733736
  4.5264261104466659 11.0874343290050650 11.4013331944733736
  4.5264261104466659 13.8592929112563308 11.4013331944733736
 11.3160652761166638  0.0000000000000005 11.4013331944733736
 11.3160652761166638  2.7718585822512667 11.4013331944733736
 11.3160652761166638  5.5437171645025334 11.4013331944733736
 11.3160652761166638  8.3155757467537992 11.4013331944733736
 11.3160652761166638 11.0874343290050650 11.4013331944733736
 11.3160652761166638 13.8592929112563308 11.4013331944733736
  2.2632130552233329  1.3859292911256336 10.6011665451642010
  2.2632130552233329  4.1577878733768996 10.6011665451642010
  2.2632130552233329  6.9296464556281663 10.6011665451642010
  2.2632130552233329  9.7015050378794321 10.6011665451642010
  2.2632130552233329 12.4733636201306979 10.6011665451642010
  2.2632130552233329 15.2452222023819637 10.6011665451642010
  9.0528522208933317  1.3859292911256336 10.6011665451642010
  9.0528522208933317  4.1577878733768996 10.6011665451642010
  9.0528522208933317  6.9296464556281663 10.6011665451642010
  9.0528522208933317  9.7015050378794321 10.6011665451642010
  9.0528522208933317 12.4733636201306979 10.6011665451642010
  9.0528522208933317 15.2452222023819637 10.6011665451642010
  0.0000000000000000  0.0000000000000000  9.8009998958550284
  0.0000000000000000  2.7718585822512662  9.8009998958550284
  0.0000000000000000  5.5437171645025325  9.8009998958550284
  0.0000000000000000  8.3155757467537992  9.8009998958550284
  0.0000000000000000 11.0874343290050650  9.8009998958550284
  0.0000000000000000 13.8592929112563308  9.8009998958550284
  6.7896391656699988  0.0000000000000000  9.8009998958550284
  6.7896391656699988  2.7718585822512662  9.8009998958550284
  6.7896391656699988  5.5437171645025325  9.8009998958550284
  6.7896391656699988  8.3155757467537992  9.8009998958550284
  6.7896391656699988 11.0874343290050650  9.8009998958550284
  6.7896391656699988 13.8592929112563308  9.8009998958550284
  4.5264261104466659  1.3859292911256340  9.0008332465458594
  4.5264261104466659  4.1577878733769005  9.0008332465458594
  4.5264261104466659  6.9296464556281663  9.0008332465458594
  4.5264261104466659  9.7015050378794339  9.0008332465458594
  4.5264261104466659 12.4733636201306997  9.0008332465458594
  4.5264261104466659 15.2452222023819655  9.0008332465458594
 11.3160652761166638  1.3859292911256340  9.0008332465458594
 11.3160652761166638  4.1577878733769005  9.0008332465458594
 11.3160652761166638  6.9296464556281663  9.0008332465458594
 11.3160652761166638  9.7015050378794339  9.0008332465458594
 11.3160652761166638 12.4733636201306997  9.0008332465458594
 11.3160652761166638 15.2452222023819655  9.0008332465458594
  2.2632130552233334  0.0000000000000006  8.2006665972366868
  2.2632130552233334  2.7718585822512667  8.2006665972366868
  2.2632130552233334  5.5437171645025334  8.2006665972366868
  2.2632130552233334  8.3155757467537992  8.2006665972366868
  2.2632130552233334 11.0874343290050650  8.2006665972366868
  2.2632130552233334 13.8592929112563308  8.2006665972366868
  9.0528522208933317  0.0000000000000006  8.2006665972366868
  9.0528522208933317  2.7718585822512667  8.2006665972366868
  9.0528522208933317  5.5437171645025334  8.2006665972366868
  9.0528522208933317  8.3155757467537992  8.2006665972366868
  9.0528522208933317 11.0874343290050650  8.2006665972366868
  9.0528522208933317 13.8592929112563308  8.2006665972366868
  0.0000000000000001  1.3859292911256336  7.4004999479275151
  0.0000000000000001  4.1577878733768996  7.4004999479275151
  0.0000000000000001  6.9296464556281663  7.4004999479275151
  0.0000000000000001  9.7015050378794321  7.4004999479275151
  0.0000000000000001 12.4733636201306979  7.4004999479275151
  0.0000000000000001 15.2452222023819637  7.4004999479275151
  6.7896391656699988  1.3859292911256336  7.4004999479275151
  6.7896391656699988  4.1577878733768996  7.4004999479275151
  6.7896391656699988  6.9296464556281663  7.4004999479275151
  6.7896391656699988  9.7015050378794321  7.4004999479275151
  6.7896391656699988 12.4733636201306979  7.4004999479275151
  6.7896391656699988 15.2452222023819637  7.4004999479275151
  4.5264261104466659  0.0000000000000005  6.6003332986183434
  4.5264261104466659  2.7718585822512667  6.6003332986183434
  4.5264261104466659  5.5437171645025334  6.6003332986183434
  4.5264261104466659  8.3155757467537992  6.6003332986183434
  4.5264261104466659 11.0874343290050650  6.6003332986183434
  4.5264261104466659 13.8592929112563308  6.6003332986183434
 11.3160652761166638  0.0000000000000005  6.6003332986183434
 11.3160652761166638  2.7718585822512667  6.6003332986183434
 11.3160652761166638  5.5437171645025334  6.6003332986183434
 11.3160652761166638  8.3155757467537992  6.6003332986183434
 11.3160652761166638 11.0874343290050650  6.6003332986183434
 11.3160652761166638 13.8592929112563308  6.6003332986183434
  2.2632130552233329  1.3859292911256336  5.8001666493091726
  2.2632130552233329  4.1577878733768996  5.8001666493091726
  2.2632130552233329  6.9296464556281663  5.8001666493091726
  2.2632130552233329  9.7015050378794321  5.8001666493091726
  2.2632130552233329 12.4733636201306979  5.8001666493091726
  2.2632130552233329 15.2452222023819637  5.8001666493091726
  9.0528522208933317  1.3859292911256336  5.8001666493091726
  9.0528522208933317  4.1577878733768996  5.8001666493091726
  9.0528522208933317  6.9296464556281663  5.8001666493091726
  9.0528522208933317  9.7015050378794321  5.8001666493091726
  9.0528522208933317 12.4733636201306979  5.8001666493091726
  9.0528522208933317 15.2452222023819637  5.8001666493091726
  0.0000000000000000  0.0000000000000000  5.0000000000000009
  0.0000000000000000  2.7718585822512662  5.0000000000000009
  0.0000000000000000  5.5437171645025325  5.0000000000000009
  0.0000000000000000  8.3155757467537992  5.0000000000000009
  0.0000000000000000 11.0874343290050650  5.0000000000000009
  0.0000000000000000 13.8592929112563308  5.0000000000000009
  6.7896391656699988  0.0000000000000000  5.0000000000000009
  6.7896391656699988  2.7718585822512662  5.0000000000000009
  6.7896391656699988  5.5437171645025325  5.0000000000000009
  6.7896391656699988  8.3155757467537992  5.0000000000000009
  6.7896391656699988 11.0874343290050650  5.0000000000000009
  6.7896391656699988 13.8592929112563308  5.0000000000000009
